!Keysight Technologies,N5242B,MY60213711,A.18.40.03
!Date: Thursday, March 26, 2026 01:20:33
!Correction: S11(C  2-Port  ) 
!S21(C  2-Port  ) 
!S12(C  2-Port  ) 
!S22(C  2-Port  ) 
!S2P File: Measurements: S11, S21, S12, S22:
# Hz S  RI   R 50
140000000000 -0.10875078 -0.18718959 -1.2122511 0.98416972 -8.647002e-05 -1.9846371e-05 0.034641996 0.22253935
140066666666.67 -0.12700577 -0.17354825 -1.1158055 1.1017987 -9.5187163e-05 -1.1350282e-05 0.053842474 0.22189189
140133333333.33 -0.15314224 -0.14995833 -0.99137527 1.2436017 -9.4736504e-05 -1.3729299e-05 0.075794183 0.22131695
140200000000 -0.15593201 -0.13736516 -0.87256551 1.3324884 -9.7321172e-05 2.3257016e-06 0.097247228 0.21516268
140266666666.67 -0.17913082 -0.12502623 -0.7233181 1.4389875 -5.3962598e-05 -3.6358861e-06 0.11677086 0.20686319
140333333333.33 -0.19272891 -0.09632349 -0.58439296 1.5174928 -8.1966689e-05 4.1147898e-05 0.13521497 0.19900905
140400000000 -0.19601277 -0.079125546 -0.45313758 1.5802896 -5.7296606e-05 3.2723339e-05 0.15306123 0.18822214
140466666666.67 -0.20452183 -0.054346766 -0.27613288 1.6287767 -6.992479e-05 2.9452798e-05 0.17410618 0.17186818
140533333333.33 -0.20231926 -0.027756765 -0.10653394 1.6603129 -5.7676338e-05 5.133605e-05 0.19095765 0.15696537
140600000000 -0.21141776 -0.011939688 0.044710755 1.6820349 -6.0854029e-05 3.667549e-05 0.20253731 0.14399388
140666666666.67 -0.21348597 0.011402488 0.21358818 1.6469221 -6.5230015e-05 4.2269086e-05 0.21363862 0.12738349
140733333333.33 -0.20903869 0.041702058 0.40187526 1.6359 -4.3447209e-05 3.847152e-05 0.22718273 0.1078504
140800000000 -0.20363665 0.059837274 0.54091793 1.5945466 -3.9943552e-05 4.8441598e-05 0.23792464 0.090688407
140866666666.67 -0.19342965 0.076319821 0.71020377 1.5527893 -3.0130952e-05 5.7716396e-05 0.24284251 0.07358411
140933333333.33 -0.1863766 0.097984523 0.87860882 1.4812374 -3.0166831e-05 3.3188597e-05 0.25150853 0.051303633
141000000000 -0.16828209 0.11900685 1.0135663 1.3879086 -3.7222693e-05 6.1232691e-05 0.25701872 0.032663941
141066666666.67 -0.15888575 0.14678018 1.1833153 1.2751923 -2.7106134e-05 4.3938016e-05 0.26058561 0.011964556
141133333333.33 -0.13804662 0.16503683 1.3062829 1.1574681 -3.0276957e-05 5.2686588e-05 0.261406 -0.010649905
141200000000 -0.12895234 0.17567934 1.4019816 1.044215 -1.3820225e-05 7.5860909e-05 0.26187247 -0.033111222
141266666666.67 -0.096896432 0.19082446 1.5402148 0.90061545 -1.2479908e-05 4.7243451e-05 0.25795755 -0.054983549
141333333333.33 -0.086073406 0.20273466 1.6153641 0.74081933 -6.6909706e-07 7.3020179e-05 0.25599656 -0.075486958
141400000000 -0.064505547 0.20646925 1.6975043 0.6088258 1.0855274e-05 5.7939775e-05 0.24802376 -0.097728513
141466666666.67 -0.043578885 0.21748 1.7656689 0.40375915 4.2308502e-06 5.7523208e-05 0.24011381 -0.11898411
141533333333.33 -0.022226177 0.23187467 1.7991301 0.24934119 -7.0932638e-06 5.3844353e-05 0.23089901 -0.13617891
141600000000 0.015336497 0.21923335 1.7986629 0.010856122 1.7241415e-05 4.444029e-05 0.21378605 -0.15878588
141666666666.67 0.036815785 0.22351262 1.8222039 -0.20358539 7.6925917e-06 5.0022471e-05 0.20085719 -0.17761141
141733333333.33 0.051120214 0.21641105 1.791765 -0.36559528 2.598671e-05 8.6167798e-05 0.18600355 -0.19216855
141800000000 0.079384141 0.21522474 1.7498262 -0.58296919 3.3743487e-05 5.835744e-05 0.16821413 -0.21148492
141866666666.67 0.11551154 0.21580935 1.7030616 -0.72801697 3.8424107e-05 4.7010304e-05 0.14803301 -0.2202792
141933333333.33 0.14485064 0.19270375 1.6116186 -0.93496037 2.9738507e-05 5.131412e-05 0.13076746 -0.23052078
142000000000 0.1576295 0.17473799 1.5403091 -1.0687764 4.7360187e-05 2.6742762e-05 0.11557267 -0.24208474
142066666666.67 0.18291113 0.17253944 1.4067136 -1.2728814 4.0065792e-05 5.5162502e-05 0.092553169 -0.25053772
142133333333.33 0.19247091 0.16102248 1.2735293 -1.3495291 5.8626669e-05 4.352722e-05 0.073013104 -0.25450528
142200000000 0.21708715 0.13542804 1.1348603 -1.5172033 4.8736445e-05 3.4354682e-05 0.053827245 -0.25827533
142266666666.67 0.2203497 0.1201111 1.0069209 -1.6572626 5.8122241e-05 3.6255224e-05 0.033037923 -0.2635282
142333333333.33 0.24485636 0.086295143 0.85296309 -1.7456304 5.5473101e-05 8.9282903e-06 0.012289628 -0.26524776
142400000000 0.24491142 0.076510161 0.63648963 -1.8441375 7.1525967e-05 1.7543649e-05 -0.014551856 -0.26635104
142466666666.67 0.25327617 0.056990318 0.46151131 -1.8925583 7.3342715e-05 1.7413626e-05 -0.035420395 -0.26340035
142533333333.33 0.25790456 0.022682905 0.28619564 -1.9687637 6.6748005e-05 1.385993e-05 -0.054833453 -0.26009351
142600000000 0.27171966 -0.004110828 0.06832853 -1.9798745 6.9284019e-05 1.4242323e-07 -0.075571217 -0.25449088
142666666666.67 0.26428574 -0.023183189 -0.12909871 -1.9772515 6.3668944e-05 1.3358476e-06 -0.097539291 -0.24714726
142733333333.33 0.25362515 -0.05430112 -0.36109698 -1.9597673 7.0861264e-05 -1.1807606e-07 -0.11823487 -0.23740305
142800000000 0.25521353 -0.07119181 -0.54311335 -1.9256829 6.6489847e-05 1.096011e-05 -0.13490474 -0.22512445
142866666666.67 0.2657772 -0.10752903 -0.74470377 -1.9189028 6.0603124e-05 -2.6167538e-05 -0.15220612 -0.21268639
142933333333.33 0.24178386 -0.12531893 -0.96309322 -1.8085299 6.6909997e-05 2.1191904e-06 -0.16989978 -0.19822627
143000000000 0.23814198 -0.14139865 -1.1123389 -1.7264223 5.6188586e-05 -2.1830137e-05 -0.18187927 -0.1837405
143066666666.67 0.22185464 -0.16294256 -1.2687823 -1.6277634 6.8374859e-05 -2.051831e-05 -0.19454341 -0.16784705
143133333333.33 0.22352816 -0.19522256 -1.420601 -1.534601 5.7075726e-05 -3.3228687e-05 -0.20336463 -0.15076701
143200000000 0.18575674 -0.20805359 -1.5777051 -1.3687109 5.2862968e-05 -4.5993871e-05 -0.2172242 -0.1342088
143266666666.67 0.17870353 -0.23552221 -1.7225471 -1.2188909 5.1606425e-05 -4.5443485e-05 -0.22511901 -0.11416924
143333333333.33 0.16564086 -0.22936711 -1.8230124 -1.0750639 5.0462259e-05 -4.0960364e-05 -0.23213971 -0.093547568
143400000000 0.1321398 -0.2681216 -1.9572432 -0.86640787 4.2264692e-05 -6.0048787e-05 -0.23920423 -0.076099485
143466666666.67 0.11291786 -0.27339858 -2.0276895 -0.66403645 3.3738743e-05 -4.0232193e-05 -0.24166539 -0.054085352
143533333333.33 0.095761552 -0.27298146 -2.1452048 -0.48117268 3.7999169e-05 -5.0706447e-05 -0.24570793 -0.033548042
143600000000 0.056376483 -0.28983438 -2.1683207 -0.23646797 3.19389e-05 -6.3532236e-05 -0.24327967 -0.015173038
143666666666.67 0.034201443 -0.28456289 -2.1758456 -0.049446464 2.3988134e-05 -6.0964274e-05 -0.24255839 0.0063373297
143733333333.33 0.011545241 -0.30224878 -2.2146053 0.1641227 1.25977e-05 -5.9196205e-05 -0.23917286 0.023185462
143800000000 -0.026510883 -0.30767146 -2.1960278 0.40669388 6.106291e-06 -5.3397929e-05 -0.23596622 0.04470722
143866666666.67 -0.046998322 -0.30604535 -2.1676278 0.60528815 6.3894254e-06 -5.7337427e-05 -0.22782932 0.061234854
143933333333.33 -0.067894168 -0.29648811 -2.086086 0.83919787 -2.4643832e-06 -6.1407736e-05 -0.2186321 0.080847844
144000000000 -0.099350855 -0.29088891 -2.0080941 1.0385382 -6.8531244e-06 -5.9927748e-05 -0.20937547 0.09622065
144066666666.67 -0.12665491 -0.28662112 -1.9141591 1.2457741 -1.9453555e-05 -6.3433057e-05 -0.19818294 0.11192821
144133333333.33 -0.1516192 -0.27875307 -1.8109435 1.4610763 -5.794911e-06 -7.9864549e-05 -0.18536852 0.1280072
144200000000 -0.1844524 -0.2631613 -1.6636908 1.6340187 -2.8366218e-05 -7.0178066e-05 -0.17368653 0.14030868
144266666666.67 -0.20509748 -0.24453245 -1.4908118 1.7938551 -3.5043973e-05 -5.6655754e-05 -0.15800457 0.15238354
144333333333.33 -0.22291002 -0.23258314 -1.325094 1.9454666 -3.8112164e-05 -4.7893507e-05 -0.14322497 0.16372089
144400000000 -0.24072769 -0.20972149 -1.099154 2.1071167 -4.6295409e-05 -7.3041534e-05 -0.12725025 0.17342436
144466666666.67 -0.26043841 -0.19124673 -0.88751024 2.2270947 -4.8820119e-05 -4.7539881e-05 -0.10948395 0.18069848
144533333333.33 -0.27634495 -0.16668561 -0.68625051 2.3056202 -5.5558794e-05 -4.4153294e-05 -0.092899188 0.18838258
144600000000 -0.28822038 -0.14135529 -0.45676929 2.3931839 -6.6764347e-05 -4.0306382e-05 -0.076088846 0.19329946
144666666666.67 -0.30659288 -0.11884163 -0.2320888 2.4478602 -8.3616251e-05 -5.4953096e-05 -0.058050089 0.19572681
144733333333.33 -0.31812701 -0.096658461 0.040230483 2.4683976 -6.4896878e-05 -1.2573656e-05 -0.038654942 0.19888745
144800000000 -0.31491673 -0.068966098 0.28425288 2.469341 -7.6670287e-05 -3.1994219e-05 -0.020320371 0.19559252
144866666666.67 -0.31814545 -0.032035939 0.56713253 2.4393699 -7.4320633e-05 -4.2393676e-05 -0.00011560321 0.19414058
144933333333.33 -0.32675552 -0.0011926629 0.78581804 2.358665 -8.1735117e-05 -2.4644642e-06 0.016005464 0.19162852
145000000000 -0.32492191 0.017559484 1.0356191 2.3256447 -7.4039352e-05 -8.817733e-07 0.033868715 0.1857444
145066666666.67 -0.32339534 0.052257709 1.2597524 2.2083564 -7.1045069e-05 -6.4683336e-06 0.051215596 0.18027817
145133333333.33 -0.31640348 0.073842481 1.463416 2.0890553 -7.1719456e-05 6.6567291e-06 0.065631568 0.17118926
145200000000 -0.31330156 0.10640828 1.6989896 1.9721901 -7.4115691e-05 1.4155972e-05 0.080408253 0.16141488
145266666666.67 -0.3053185 0.12733121 1.8953614 1.7963327 -7.0641727e-05 1.9288094e-05 0.096285045 0.15044293
145333333333.33 -0.29308775 0.14676847 2.0604255 1.616971 -9.273272e-05 2.9291969e-05 0.10714197 0.13886386
145400000000 -0.27949157 0.17103194 2.2274067 1.4306631 -6.6340508e-05 2.9365807e-05 0.11820143 0.12721257
145466666666.67 -0.26278716 0.20234591 2.4046731 1.190943 -7.8211233e-05 4.7468751e-05 0.12935399 0.11249289
145533333333.33 -0.24535774 0.214615 2.5035126 0.94716024 -5.6552104e-05 5.9205482e-05 0.13728739 0.098132357
145600000000 -0.23221271 0.23565529 2.6218386 0.71645814 -5.4155407e-05 5.3756521e-05 0.14590254 0.082971998
145666666666.67 -0.21133816 0.24750203 2.6909616 0.47372091 -5.2454903e-05 6.0169397e-05 0.15228537 0.067805476
145733333333.33 -0.18416217 0.26754472 2.7500267 0.23511708 -2.899038e-05 6.3525993e-05 0.15591919 0.051013667
145800000000 -0.16316795 0.28361139 2.7718413 -0.093713939 -4.7255155e-05 7.3062358e-05 0.16139466 0.033677325
145866666666.67 -0.13627824 0.29063916 2.7722545 -0.37251723 -4.2189058e-05 7.0147733e-05 0.16196419 0.016954111
145933333333.33 -0.10474031 0.30900043 2.7755878 -0.64878881 -2.6996562e-05 7.4927826e-05 0.16130075 0.00011485815
146000000000 -0.084971905 0.31106871 2.7123787 -0.92335272 -1.6872491e-05 7.4536707e-05 0.1590661 -0.016387649
146066666666.67 -0.054651532 0.3213352 2.624228 -1.1868514 -1.5215164e-05 7.437828e-05 0.15472996 -0.032461092
146133333333.33 -0.028044656 0.32318252 2.5080719 -1.453733 3.8229082e-06 9.6104646e-05 0.15062729 -0.047817029
146200000000 -0.00015772879 0.31275871 2.3623493 -1.6748328 6.4999695e-06 8.7427063e-05 0.14319554 -0.062308658
146266666666.67 0.025885731 0.31785291 2.217108 -1.9492083 -1.2937412e-06 6.4789529e-05 0.13724682 -0.077456072
146333333333.33 0.053933769 0.31695527 2.0161488 -2.2030799 4.5490633e-06 7.7887125e-05 0.12700948 -0.09279348
146400000000 0.082201704 0.29579806 1.8242108 -2.3643427 -2.9008534e-06 8.1963786e-05 0.11831702 -0.10459965
146466666666.67 0.10390528 0.2914094 1.5711815 -2.5662882 2.1904725e-05 6.7974368e-05 0.10695888 -0.11725841
146533333333.33 0.13451955 0.27700368 1.3256848 -2.7230017 3.3127115e-05 7.5085321e-05 0.094638117 -0.12888131
146600000000 0.16133411 0.26628885 1.056947 -2.891274 3.8238817e-05 6.3864209e-05 0.080097526 -0.13787293
146666666666.67 0.16595857 0.24839112 0.77782023 -2.986454 5.0282331e-05 7.7109064e-05 0.06731315 -0.14897743
146733333333.33 0.19749127 0.22710334 0.47254324 -3.0909925 3.9233975e-05 5.3566488e-05 0.052239221 -0.15553932
146800000000 0.21340594 0.20993187 0.16647065 -3.1176569 6.7040986e-05 6.3175095e-05 0.036160938 -0.16069701
146866666666.67 0.22881477 0.19519633 -0.15839423 -3.1601355 4.2232114e-05 5.1499326e-05 0.020288631 -0.16659604
146933333333.33 0.25139144 0.17352982 -0.48446429 -3.1720073 6.0214341e-05 3.2074418e-05 0.0035072044 -0.16926154
147000000000 0.25077417 0.15068066 -0.79788291 -3.101819 7.1662842e-05 2.817864e-05 -0.011816896 -0.17094018
147066666666.67 0.25670666 0.11412521 -1.1211307 -3.023978 4.0415511e-05 4.6875215e-05 -0.029553704 -0.17152546
147133333333.33 0.27660426 0.090794258 -1.4364679 -2.947314 8.5268104e-05 3.6297275e-05 -0.045890808 -0.17017899
147200000000 0.27832776 0.065145031 -1.7026348 -2.7812216 4.8008504e-05 1.5795094e-05 -0.060829498 -0.16496688
147266666666.67 0.27491164 0.03647561 -1.9956707 -2.6327155 5.7670972e-05 2.2035649e-05 -0.076007918 -0.16260645
147333333333.33 0.27653331 0.0062673464 -2.2477887 -2.4432063 7.6163196e-05 7.0761689e-06 -0.089967191 -0.15721169
147400000000 0.27285385 -0.011887968 -2.4969337 -2.2399867 6.7522575e-05 -1.1300237e-05 -0.10500252 -0.1505046
147466666666.67 0.27581438 -0.04199205 -2.7408261 -2.0044479 5.4718053e-05 -5.7643338e-06 -0.11862691 -0.14325616
147533333333.33 0.26527074 -0.075363114 -2.9558334 -1.6963844 7.1216404e-05 -2.7283011e-05 -0.13199265 -0.13485193
147600000000 0.25434086 -0.092822902 -3.0973687 -1.4201143 5.7049696e-05 -4.3717409e-05 -0.14515452 -0.12397115
147666666666.67 0.24124113 -0.11641778 -3.2665038 -1.1367724 7.8624806e-05 -1.3655357e-05 -0.15729257 -0.11378008
147733333333.33 0.22727796 -0.13567378 -3.3858118 -0.80547798 6.9735725e-05 -3.7264028e-05 -0.16786501 -0.10058102
147800000000 0.20121419 -0.1704455 -3.4887252 -0.29349613 5.3337924e-05 -4.5749435e-05 -0.17807028 -0.088102885
147866666666.67 0.1891377 -0.18111441 -3.5308332 -0.041475058 5.9760088e-05 -3.2998021e-05 -0.18692465 -0.074031584
147933333333.33 0.16915661 -0.20191386 -3.550359 0.30673471 4.6378467e-05 -4.6307843e-05 -0.19514397 -0.058954827
148000000000 0.14493963 -0.22386913 -3.5223668 0.66663718 5.5786448e-05 -5.4130825e-05 -0.20074642 -0.045011014
148066666666.67 0.12672 -0.23287687 -3.4633384 1.0238079 3.9024602e-05 -5.5628479e-05 -0.20555022 -0.028465316
148133333333.33 0.096542746 -0.2375112 -3.346364 1.3539104 3.6314188e-05 -5.0453174e-05 -0.20872591 -0.012812022
148200000000 0.068575509 -0.25037974 -3.2298107 1.6966612 3.3059889e-05 -7.5733769e-05 -0.2122391 0.0039216131
148266666666.67 0.041859403 -0.25916585 -3.0588632 2.0272512 3.7933089e-05 -5.7737219e-05 -0.2126272 0.018637151
148333333333.33 0.016331092 -0.26371148 -2.8599176 2.3384168 2.4170722e-05 -6.0866845e-05 -0.21309659 0.034882016
148400000000 -0.012352385 -0.26244512 -2.6042759 2.6196971 2.7733549e-05 -8.308392e-05 -0.21115905 0.051627509
148466666666.67 -0.039352871 -0.25560969 -2.3510482 2.901737 1.3883655e-05 -6.4632964e-05 -0.20921205 0.069924079
148533333333.33 -0.064149916 -0.25864446 -2.0976636 3.1507638 -3.0496503e-06 -7.3394178e-05 -0.20508246 0.084212713
148600000000 -0.09001603 -0.24113376 -1.749905 3.3244197 2.0399584e-05 -6.5237189e-05 -0.1997219 0.099536896
148666666666.67 -0.11855764 -0.2372908 -1.4303017 3.5226998 -6.3504158e-06 -8.1269485e-05 -0.19367589 0.11461009
148733333333.33 -0.1461491 -0.22093306 -1.0620074 3.6610012 -1.3743229e-06 -7.3562485e-05 -0.1861075 0.12866384
148800000000 -0.16150707 -0.20932958 -0.73066962 3.7559431 -2.8136596e-05 -8.1270497e-05 -0.17698623 0.1415711
148866666666.67 -0.18689461 -0.19539317 -0.37201393 3.8318772 -1.3762907e-05 -7.4381634e-05 -0.168926 0.15448549
148933333333.33 -0.2086311 -0.1741894 0.0012567639 3.8680491 -2.1791186e-05 -4.5345958e-05 -0.15905645 0.16587722
149000000000 -0.23265231 -0.15443456 0.37392259 3.8837659 -2.640714e-05 -6.3189364e-05 -0.14859675 0.17776261
149066666666.67 -0.24251541 -0.13989843 0.75137317 3.8436129 -3.1054071e-05 -6.2903062e-05 -0.13517717 0.18716258
149133333333.33 -0.25966573 -0.10925855 1.1197183 3.7807748 -4.4465698e-05 -4.1280575e-05 -0.12296516 0.19804551
149200000000 -0.27204812 -0.095487654 1.5142651 3.6763613 -3.6663161e-05 -6.2035055e-05 -0.10388456 0.20986739
149266666666.67 -0.28561318 -0.07118848 1.8622315 3.5252624 -6.1850267e-05 -3.2587588e-05 -0.085286327 0.21820584
149333333333.33 -0.29007638 -0.035965003 2.1848564 3.3620534 -4.5458411e-05 -4.4888824e-05 -0.065371193 0.22404689
149400000000 -0.29827604 -0.0088577345 2.5884647 3.1314909 -4.9949485e-05 -2.712174e-05 -0.04859592 0.23033133
149466666666.67 -0.29986101 0.016017262 2.8545914 2.8667872 -7.9219091e-05 -3.5351382e-05 -0.03196656 0.233188
149533333333.33 -0.29836255 0.051928818 3.1282477 2.5643616 -6.0464743e-05 -8.2086262e-06 -0.015552729 0.23585118
149600000000 -0.2938931 0.074374095 3.3693652 2.2756011 -5.1174884e-05 -2.5917227e-05 0.0010070503 0.23579854
149666666666.67 -0.29171968 0.10458761 3.6316173 1.9456779 -4.0285518e-05 1.3588642e-06 0.014392026 0.23643735
149733333333.33 -0.28115085 0.13136956 3.8188453 1.5596526 -5.9343882e-05 -2.0060592e-05 0.030159876 0.23324031
149800000000 -0.27502283 0.15746123 3.9692297 1.2327143 -8.4194311e-05 4.5112056e-06 0.043672163 0.23136887
149866666666.67 -0.26206875 0.18298332 4.0901947 0.83066845 -7.534535e-05 4.8588681e-06 0.058935426 0.2269839
149933333333.33 -0.2470808 0.20762485 4.1381841 0.44064903 -5.0871808e-05 -9.1326474e-06 0.071584791 0.2234647
150000000000 -0.23445682 0.22635056 4.1929345 0.05927667 -7.0769631e-05 4.4896974e-06 0.083129227 0.21798801
150066666666.67 -0.21493417 0.2526257 4.1966271 -0.36932731 -8.8100787e-05 1.1743577e-06 0.098062932 0.21188976
150133333333.33 -0.19542006 0.26989844 4.1455126 -0.76670647 -5.7841509e-05 1.3710081e-05 0.11040581 0.20530123
150200000000 -0.17213015 0.28901887 4.1222167 -1.1645347 -6.5186294e-05 1.0989489e-05 0.12170348 0.19783413
150266666666.67 -0.15448491 0.30882242 4.0026975 -1.5525768 -3.9071714e-05 3.4450808e-05 0.13543321 0.18879285
150333333333.33 -0.12870196 0.3205342 3.8470955 -1.9249411 -5.8448371e-05 3.3671644e-05 0.14508013 0.17771414
150400000000 -0.10749316 0.33791271 3.688199 -2.3104422 -4.6313813e-05 4.0768424e-05 0.15577303 0.16722591
150466666666.67 -0.081016764 0.34888315 3.5014827 -2.6514072 -5.6687772e-05 5.5062101e-05 0.16400579 0.15602876
150533333333.33 -0.051102944 0.35520253 3.2003808 -3.0184624 -5.8410453e-05 4.0817995e-05 0.17300811 0.14601782
150600000000 -0.018888533 0.35849348 2.8755355 -3.3643937 -5.997382e-05 5.2240925e-05 0.18067175 0.1320837
150666666666.67 -0.0011762828 0.36881208 2.6048112 -3.6572216 -3.4414603e-05 6.810973e-05 0.1892637 0.1204367
150733333333.33 0.037772592 0.36990875 2.1658514 -3.9337039 -2.1583237e-05 7.5549709e-05 0.19376156 0.10807111
150800000000 0.061661065 0.36786896 1.8504735 -4.1708493 -2.2220866e-05 6.9367714e-05 0.19938336 0.096906669
150866666666.67 0.073070891 0.36490256 1.5340819 -4.2661896 -2.7675289e-05 8.8344794e-05 0.20255323 0.083969623
150933333333.33 0.11232273 0.36241749 1.15254 -4.4516382 -9.5221512e-06 5.1396746e-05 0.20448135 0.076573178
151000000000 0.13949358 0.36235875 0.73446751 -4.5590696 -1.4873947e-05 6.0278588e-05 0.20607169 0.064303592
151066666666.67 0.16500759 0.3533853 0.2925595 -4.6447463 -3.4974428e-06 7.9346217e-05 0.2085816 0.05137657
151133333333.33 0.19425194 0.33102196 -0.11860549 -4.6896029 -1.7256969e-05 5.207683e-05 0.20939527 0.03900332
151200000000 0.22309449 0.32371664 -0.577595 -4.7088585 -8.6170257e-07 8.0588223e-05 0.20997763 0.025699481
151266666666.67 0.24185112 0.30627593 -1.0502326 -4.6469402 4.5473673e-05 7.2222196e-05 0.20844223 0.012099897
151333333333.33 0.25650847 0.28912348 -1.4822481 -4.5697088 1.6676408e-05 6.4732361e-05 0.20788598 -0.0011044443
151400000000 0.28544372 0.26372963 -1.9223193 -4.4251108 2.5424084e-05 7.8225181e-05 0.20598873 -0.012978144
151466666666.67 0.30892274 0.24885859 -2.3476155 -4.2597437 2.2245304e-06 5.8474798e-05 0.20179629 -0.0254745
151533333333.33 0.32382137 0.22084215 -2.8049269 -4.0125685 2.4078781e-05 4.8642862e-05 0.19792277 -0.038110144
151600000000 0.34544098 0.20098619 -3.1602426 -3.7640495 4.3087799e-05 7.0648704e-05 0.1929958 -0.051002432
151666666666.67 0.35780847 0.18112537 -3.5640278 -3.5137949 3.4254335e-05 6.9317786e-05 0.18810365 -0.062666774
151733333333.33 0.37182143 0.15351468 -3.8895481 -3.1609867 4.0921474e-05 5.3169606e-05 0.18045288 -0.074020281
151800000000 0.39029336 0.12127356 -4.2064304 -2.8070712 5.8669993e-05 4.1247749e-05 0.17355663 -0.08245565
151866666666.67 0.38799262 0.092055306 -4.4871335 -2.3863778 5.1345098e-05 4.6389927e-05 0.16590843 -0.093221553
151933333333.33 0.39861089 0.062884532 -4.7171841 -1.9349029 7.7028577e-05 1.7171667e-05 0.15651153 -0.10172778
152000000000 0.40568468 0.033331931 -4.9287953 -1.4981016 6.1772313e-05 3.481481e-05 0.14817291 -0.11071542
152066666666.67 0.40366966 0.0045087934 -5.0630002 -1.0424508 6.7984787e-05 4.2775642e-05 0.1397831 -0.11697835
152133333333.33 0.40597177 -0.023130551 -5.2190766 -0.54259741 7.0215188e-05 3.2636468e-05 0.13066392 -0.12491366
152200000000 0.39427954 -0.053630158 -5.2710404 -0.0079865456 6.9714908e-05 1.7175465e-05 0.12206671 -0.13126881
152266666666.67 0.39240488 -0.078617543 -5.2844462 0.48745346 8.1696198e-05 2.9480174e-05 0.11080784 -0.13632669
152333333333.33 0.39055452 -0.10995732 -5.2353582 1.00807 7.2352865e-05 3.9191191e-06 0.10013083 -0.1401042
152400000000 0.37793976 -0.13761196 -5.1845431 1.5311611 8.4073341e-05 1.6076263e-05 0.090763494 -0.14519143
152466666666.67 0.36581612 -0.17215404 -5.0398021 2.0291739 5.3177719e-05 -2.9050865e-05 0.080258772 -0.14744729
152533333333.33 0.35553598 -0.19756842 -4.8928318 2.5025837 8.7419336e-05 -1.6886203e-05 0.069278434 -0.15074107
152600000000 0.33570015 -0.21573119 -4.5819592 3.0018106 7.1550727e-05 -4.2333086e-06 0.058451544 -0.15277262
152666666666.67 0.31744945 -0.24018759 -4.3282137 3.4784765 7.0192371e-05 1.3605361e-05 0.048370384 -0.15298286
152733333333.33 0.30275205 -0.2651445 -4.0294185 3.8975065 9.0787333e-05 -3.3171036e-05 0.037397526 -0.15328501
152800000000 0.27802593 -0.2884855 -3.6396604 4.3059697 5.4384622e-05 -3.130734e-05 0.026850913 -0.15348575
152866666666.67 0.25994432 -0.30397838 -3.2333848 4.687263 6.1343606e-05 -4.6621339e-05 0.016615681 -0.15216926
152933333333.33 0.22151589 -0.31651825 -2.7776148 4.9806561 7.4936012e-05 -4.668138e-05 0.0067239963 -0.15093423
153000000000 0.20264199 -0.33580601 -2.292475 5.2483883 4.2167103e-05 -6.0112638e-05 -0.0033702664 -0.1471294
153066666666.67 0.17795725 -0.34683216 -1.8006265 5.506896 4.6757657e-05 -7.0381553e-05 -0.012049755 -0.14520554
153133333333.33 0.14941563 -0.35986519 -1.2558409 5.6940904 4.3448665e-05 -6.8130648e-05 -0.021734264 -0.14082006
153200000000 0.11341374 -0.36384994 -0.69236135 5.8233223 3.7296493e-05 -8.1984996e-05 -0.030725498 -0.13726272
153266666666.67 0.090817437 -0.37866405 -0.12337017 5.9289775 5.5308825e-05 -6.6558343e-05 -0.038225465 -0.13132164
153333333333.33 0.058246292 -0.37689742 0.43905461 5.8984966 3.5774508e-05 -8.1141239e-05 -0.045596585 -0.12633286
153400000000 0.033077087 -0.37661526 0.9861542 5.917882 6.2874883e-06 -7.5187505e-05 -0.052782964 -0.12070866
153466666666.67 -0.003684476 -0.37751341 1.5771329 5.8259163 1.2112592e-05 -8.2328857e-05 -0.059195589 -0.11484388
153533333333.33 -0.026861027 -0.37582797 2.0997264 5.7163515 -1.5287547e-05 -0.00010157174 -0.065930389 -0.10882661
153600000000 -0.053114608 -0.3665362 2.7103028 5.5211182 7.1091745e-06 -7.0301605e-05 -0.072554186 -0.10200983
153666666666.67 -0.086735055 -0.35436785 3.2460921 5.2322741 -4.2299529e-05 -0.00010936159 -0.077138051 -0.096459448
153733333333.33 -0.11195982 -0.34815887 3.793606 4.9462976 -2.5734917e-05 -8.5940388e-05 -0.081684224 -0.089035116
153800000000 -0.13653141 -0.33345374 4.2781491 4.5990167 -2.7620674e-05 -7.3743213e-05 -0.086583607 -0.081873536
153866666666.67 -0.15804923 -0.32247519 4.6988668 4.2040424 -3.4723009e-05 -8.7094959e-05 -0.089852393 -0.074339472
153933333333.33 -0.18666731 -0.30402523 5.1880622 3.6868851 -5.6435689e-05 -8.137033e-05 -0.093707234 -0.066348061
154000000000 -0.20792018 -0.283537 5.550972 3.198132 -4.8584559e-05 -8.4684318e-05 -0.096186191 -0.058803655
154066666666.67 -0.23123233 -0.26459694 5.8985519 2.6845403 -6.9303169e-05 -8.1351202e-05 -0.098532595 -0.050547328
154133333333.33 -0.24309449 -0.23671411 6.1525702 2.0893559 -6.448209e-05 -6.9070229e-05 -0.099330015 -0.042018928
154200000000 -0.2611737 -0.2196499 6.3663635 1.4953442 -8.5939144e-05 -4.3161508e-05 -0.099067569 -0.034995977
154266666666.67 -0.27433363 -0.19465804 6.5083485 0.87816048 -9.6278789e-05 -4.6830311e-05 -0.099332564 -0.02653674
154333333333.33 -0.29080686 -0.17452686 6.6354308 0.24880862 -9.0689602e-05 -5.2406667e-05 -0.098281585 -0.019134898
154400000000 -0.30190253 -0.14547139 6.6620731 -0.38884139 -8.098314e-05 -4.3730754e-05 -0.097214878 -0.011834582
154466666666.67 -0.31365681 -0.12073249 6.6720576 -1.0779607 -0.00011722989 -3.9310093e-05 -0.096062623 -0.0040422129
154533333333.33 -0.31435558 -0.093251795 6.5824518 -1.6876018 -0.00011100576 -1.4104218e-05 -0.094184831 0.0025858507
154600000000 -0.31775701 -0.06784372 6.4034033 -2.3729367 -9.9137222e-05 -6.3183179e-06 -0.091236271 0.0091775879
154666666666.67 -0.31758073 -0.041167922 6.1732302 -2.9922404 -9.9673656e-05 1.5797605e-05 -0.088493042 0.01566476
154733333333.33 -0.31731516 -0.018726945 5.8901138 -3.5905576 -0.00010048485 1.7982093e-05 -0.085512653 0.021418449
154800000000 -0.31525314 0.014035434 5.5946984 -4.1786175 -8.5885949e-05 3.9281684e-05 -0.082261294 0.027453922
154866666666.67 -0.30602553 0.041530773 5.1489253 -4.7011371 -9.3957766e-05 3.6662143e-05 -0.078493655 0.033413976
154933333333.33 -0.30212232 0.06700781 4.692883 -5.2219296 -9.8595934e-05 4.833809e-05 -0.074239016 0.038476598
155000000000 -0.29460603 0.093344942 4.2180395 -5.720572 -7.9664911e-05 5.3163676e-05 -0.069945969 0.043414019
155066666666.67 -0.27899477 0.11302609 3.6409039 -6.125845 -7.1812465e-05 6.5851658e-05 -0.064661205 0.048307702
155133333333.33 -0.26903838 0.13924155 3.1132917 -6.474978 -7.6767661e-05 9.1745838e-05 -0.059336573 0.052448731
155200000000 -0.25339833 0.15614125 2.4135947 -6.8210826 -6.4819287e-05 9.3876595e-05 -0.054241363 0.056700036
155266666666.67 -0.23713656 0.17390244 1.7963804 -7.0693126 -5.396537e-05 0.00010446332 -0.048498902 0.060089864
155333333333.33 -0.21323794 0.19379693 1.0683122 -7.2460084 -4.6347301e-05 9.6776108e-05 -0.04238078 0.063170917
155400000000 -0.19582976 0.21370304 0.33170462 -7.3530102 -5.2801552e-06 9.698877e-05 -0.036133267 0.065237105
155466666666.67 -0.17681749 0.22947527 -0.41491312 -7.4034157 -2.7404047e-05 9.6198863e-05 -0.029854324 0.067577302
155533333333.33 -0.153492 0.23675616 -1.1072066 -7.3969383 5.5325472e-06 8.6677544e-05 -0.024088196 0.068882383
155600000000 -0.12926793 0.25016373 -1.8247437 -7.3018064 -3.9367142e-06 9.7085387e-05 -0.017662045 0.069848962
155666666666.67 -0.10425819 0.25611418 -2.5546446 -7.1188602 6.8953668e-06 0.00010510256 -0.011217615 0.070309535
155733333333.33 -0.080612138 0.26469615 -3.2880669 -6.8607368 1.5846606e-05 9.6109834e-05 -0.0046521341 0.070265681
155800000000 -0.058143079 0.26784104 -3.9403954 -6.5787964 2.1009295e-05 8.396995e-05 0.0012840107 0.070146844
155866666666.67 -0.034750447 0.27272955 -4.6120524 -6.1941981 4.2193657e-05 8.7215565e-05 0.007554194 0.069434538
155933333333.33 -0.01184088 0.27091423 -5.1981983 -5.7454119 4.2196509e-05 7.2427378e-05 0.013608227 0.067985445
156000000000 0.015253566 0.26867211 -5.8179507 -5.1839857 6.5646404e-05 6.8183203e-05 0.019453753 0.066081837
156066666666.67 0.037386872 0.26654044 -6.3128195 -4.6584687 5.5348548e-05 6.9368005e-05 0.025608925 0.064366736
156133333333.33 0.060717218 0.25962403 -6.7458148 -4.0065989 5.5603414e-05 6.1516483e-05 0.031392124 0.061733454
156200000000 0.086252965 0.25147682 -7.1576385 -3.3524175 5.9711434e-05 6.2212406e-05 0.03678181 0.058712102
156266666666.67 0.10551723 0.24082524 -7.5036798 -2.6545477 7.7566809e-05 5.3253447e-05 0.042221669 0.055454083
156333333333.33 0.1240067 0.2313377 -7.7406936 -1.9466126 7.7262637e-05 2.7835735e-05 0.048148457 0.051979743
156400000000 0.1466451 0.21811652 -7.9244366 -1.2036791 0.00011119359 2.8839906e-05 0.053065527 0.047486264
156466666666.67 0.1619454 0.20165819 -8.0959892 -0.4479301 9.2383772e-05 2.2868782e-05 0.058153387 0.043025754
156533333333.33 0.1798393 0.18674123 -8.1584616 0.3478204 9.2810267e-05 1.8835584e-05 0.062231459 0.038283788
156600000000 0.19297622 0.16601613 -8.0609016 1.1869297 8.7562978e-05 -3.0255869e-06 0.066044189 0.032521799
156666666666.67 0.2076349 0.14814717 -7.95364 1.9488361 0.00010048696 -1.3783194e-05 0.069568641 0.0270299
156733333333.33 0.22340742 0.12954462 -7.7873607 2.7728615 6.8432179e-05 -1.3458302e-05 0.072800383 0.020899935
156800000000 0.23037222 0.10905573 -7.5021667 3.4990172 9.5935095e-05 -3.5043769e-05 0.075347751 0.015166124
156866666666.67 0.24143472 0.088923663 -7.171833 4.2292171 9.2507791e-05 -2.9027227e-05 0.077262789 0.0087850327
156933333333.33 0.2493439 0.067617238 -6.729342 4.9180412 7.7784091e-05 -3.8601436e-05 0.078673318 0.0019252822
157000000000 0.25145832 0.044016585 -6.2461815 5.5768986 7.9977821e-05 -4.8191141e-05 0.080150098 -0.0041004568
157066666666.67 0.25258207 0.020080013 -5.7098112 6.1905675 6.8554276e-05 -7.3146686e-05 0.080905698 -0.010773423
157133333333.33 0.25605237 6.184727e-05 -5.1415954 6.7310028 6.3016414e-05 -5.868046e-05 0.081532232 -0.017810963
157200000000 0.25280946 -0.02045469 -4.4330263 7.255414 3.6033973e-05 -7.9689096e-05 0.081583425 -0.024342932
157266666666.67 0.25067571 -0.044967227 -3.7407799 7.6729708 5.3081276e-05 -8.0969228e-05 0.081306919 -0.03125554
157333333333.33 0.24646853 -0.067442842 -2.9556584 8.0560255 1.2060314e-05 -7.7947108e-05 0.079967871 -0.037912194
157400000000 0.23940817 -0.085897483 -2.1803749 8.3272114 2.7774018e-05 -7.0366077e-05 0.078137361 -0.045079529
157466666666.67 0.228083 -0.10620342 -1.4017607 8.4840965 2.625651e-05 -8.3675986e-05 0.076523915 -0.0518572
157533333333.33 0.21871918 -0.12829894 -0.53846598 8.6460209 -3.6816709e-07 -7.6500786e-05 0.073905915 -0.058678083
157600000000 0.20736411 -0.15392971 0.58597159 8.6698437 -1.2528073e-05 -6.042375e-05 0.07065168 -0.065292969
157666666666.67 0.18766984 -0.17474088 1.5464625 8.5536289 -1.5811893e-05 -6.6258996e-05 0.067029834 -0.07197661
157733333333.33 0.17221348 -0.18897738 2.405457 8.4188147 -1.5343205e-05 -7.5751996e-05 0.062756225 -0.078139812
157800000000 0.15902321 -0.20512836 3.2201183 8.1266479 -2.1829374e-05 -6.7458626e-05 0.057882007 -0.0839656
157866666666.67 0.13835984 -0.21337788 4.0374441 7.8487024 -3.160139e-05 -7.2029274e-05 0.052737955 -0.090234086
157933333333.33 0.11982616 -0.22599885 4.76964 7.4471865 -4.7941357e-05 -5.5421566e-05 0.047342483 -0.095534496
158000000000 0.098483287 -0.23270802 5.4626741 6.9452767 -5.2859676e-05 -5.4159074e-05 0.04106098 -0.10070954
158066666666.67 0.081792697 -0.24254373 6.1533685 6.4245987 -4.2328553e-05 -4.9039918e-05 0.034773003 -0.10523476
158133333333.33 0.06258738 -0.2500065 6.7669201 5.8330703 -4.8688158e-05 -2.4699209e-05 0.027761877 -0.10940376
158200000000 0.04498357 -0.25170243 7.2767553 5.1826496 -6.6393761e-05 -4.9595219e-05 0.021034475 -0.1131162
158266666666.67 0.019992732 -0.25357535 7.7901864 4.4755788 -5.7323283e-05 -1.809658e-05 0.013555739 -0.11658798
158333333333.33 -0.0039047524 -0.25678819 8.2203007 3.7046506 -5.6044621e-05 -1.3647381e-05 0.0054309554 -0.11911665
158400000000 -0.021534272 -0.25360599 8.5535469 2.9348845 -6.2635016e-05 -5.369076e-06 -0.0027051456 -0.1213291
158466666666.67 -0.040253796 -0.25192788 8.8057194 2.1205535 -5.6900139e-05 9.7642442e-07 -0.010794193 -0.12309947
158533333333.33 -0.060595676 -0.25190488 9.0103903 1.3057115 -6.7169494e-05 -2.7608912e-06 -0.01889218 -0.12413909
158600000000 -0.078111216 -0.24570422 9.1117964 0.4484086 -6.6188797e-05 1.0452955e-05 -0.027752595 -0.12463811
158666666666.67 -0.098066896 -0.23796706 9.1352444 -0.47554207 -6.9727859e-05 3.7202277e-05 -0.036742959 -0.12468405
158733333333.33 -0.11471905 -0.23335895 9.0782204 -1.2993922 -6.3234053e-05 3.3925958e-06 -0.045543138 -0.12373789
158800000000 -0.13578892 -0.22449997 8.9349403 -2.2350674 -3.714261e-05 2.9337865e-05 -0.053440921 -0.12306017
158866666666.67 -0.14903902 -0.21372467 8.7141867 -3.0299737 -7.0449627e-05 2.8982889e-05 -0.062526025 -0.12080128
158933333333.33 -0.16356622 -0.20141165 8.4406958 -3.9096859 -3.8466911e-05 4.329158e-05 -0.071435325 -0.11816484
159000000000 -0.18066399 -0.18569781 8.0318069 -4.6932945 -2.0822843e-05 2.7380065e-05 -0.080249622 -0.11496377
159066666666.67 -0.19366425 -0.17333767 7.5676537 -5.4554667 -3.5251644e-05 6.8301895e-05 -0.088405259 -0.11098494
159133333333.33 -0.20549893 -0.15732744 7.0552592 -6.163475 -3.3291071e-05 4.866099e-05 -0.096474357 -0.10689531
159200000000 -0.21880746 -0.14068744 6.4248428 -6.7750921 -3.3348464e-05 4.1585427e-05 -0.10426507 -0.10085172
159266666666.67 -0.22686742 -0.12649524 5.8115973 -7.3811965 -2.2020326e-05 6.0161001e-05 -0.11137966 -0.095390797
159333333333.33 -0.23485577 -0.10837399 5.1383753 -7.9040298 -2.4167382e-05 6.6307373e-05 -0.11825462 -0.088721499
159400000000 -0.24204019 -0.090522639 4.380157 -8.3651438 -3.5621597e-06 4.319079e-05 -0.12488741 -0.082396552
159466666666.67 -0.24618003 -0.072033681 3.5942099 -8.7346315 -2.9397002e-06 5.690501e-05 -0.13178936 -0.075110525
159533333333.33 -0.24916005 -0.058504447 2.856976 -9.0418797 6.3261723e-07 4.5066074e-05 -0.13711549 -0.067311153
159600000000 -0.25331217 -0.040509325 2.0194228 -9.3261442 -1.1557901e-05 5.869527e-05 -0.14291079 -0.059555501
159666666666.67 -0.25362492 -0.023939945 1.1496048 -9.4989948 2.5031735e-05 3.0671941e-05 -0.14718948 -0.051504359
159733333333.33 -0.25239459 -0.003907159 0.19181919 -9.599226 9.0152962e-06 4.1957232e-05 -0.15140973 -0.042366002
159800000000 -0.25467122 0.015330228 -0.71766782 -9.5589972 -5.3484905e-07 6.6789784e-05 -0.1548849 -0.033164851
159866666666.67 -0.25073707 0.029633321 -1.6157296 -9.4665012 4.0495208e-05 6.1192201e-05 -0.15768223 -0.0242984
159933333333.33 -0.24522316 0.048545297 -2.4781828 -9.2934761 4.6224432e-05 3.9403749e-05 -0.16034305 -0.014625162
160000000000 -0.24172145 0.065656781 -3.3711631 -9.0280609 3.5953621e-05 3.7820595e-05 -0.16186532 -0.0053971903
160066666666.67 -0.23453882 0.084081098 -4.2025347 -8.678153 4.4661912e-05 3.7566868e-05 -0.16359496 0.0053528547
160133333333.33 -0.22866724 0.099361926 -5.0248752 -8.2170134 2.8757404e-05 1.6764536e-05 -0.16254401 0.015185285
160200000000 -0.21965218 0.11755208 -5.9012122 -7.803256 4.3548451e-05 2.0007585e-05 -0.16280076 0.02597272
160266666666.67 -0.21171747 0.13018027 -6.6072569 -7.2197571 3.1741518e-05 3.2585827e-05 -0.16173875 0.035622943
160333333333.33 -0.19901416 0.14140397 -7.2987628 -6.6156549 6.3699619e-05 1.4530582e-05 -0.1603613 0.045470275
160400000000 -0.18750933 0.15651137 -7.9277 -5.8724952 3.7163038e-05 2.5092799e-05 -0.15745464 0.05578611
160466666666.67 -0.17562163 0.16708763 -8.4310303 -5.1225352 5.1190949e-05 -2.3956287e-05 -0.15399593 0.065138258
160533333333.33 -0.16341382 0.17584223 -8.8668079 -4.3850155 3.3254932e-05 2.4479323e-07 -0.15021341 0.07471782
160600000000 -0.14850996 0.1840644 -9.2159281 -3.5186818 3.616781e-05 -2.4204477e-05 -0.14560688 0.084465161
160666666666.67 -0.13531846 0.19594407 -9.5467682 -2.6068838 3.0958388e-05 -2.617298e-05 -0.14004463 0.093896158
160733333333.33 -0.11650299 0.20151684 -9.7825603 -1.6676106 3.0883417e-05 -4.1111498e-06 -0.13430822 0.10213086
160800000000 -0.10332583 0.20710337 -9.9694557 -0.78271008 4.6886456e-05 -8.0442433e-06 -0.12880975 0.11016694
160866666666.67 -0.08734034 0.21024589 -10.00081 0.16699466 4.9652146e-05 -2.8657454e-05 -0.12172074 0.11828744
160933333333.33 -0.071691021 0.21551111 -10.000969 1.1092539 2.3322151e-05 -2.5049012e-05 -0.11437199 0.12583217
161000000000 -0.0552532 0.21749347 -9.8762407 2.0672665 2.425562e-05 -4.9138522e-05 -0.10662217 0.13257764
161066666666.67 -0.038896702 0.21998622 -9.6290855 3.0214076 1.488109e-05 -3.6912137e-05 -0.097977385 0.13883056
161133333333.33 -0.023556612 0.21863911 -9.3077354 3.9331641 2.095024e-05 -2.8529073e-05 -0.08927846 0.14471
161200000000 -0.00632523 0.21490355 -8.9371271 4.8230677 1.3430051e-05 -3.3625587e-05 -0.080213666 0.1494984
161266666666.67 0.0073837563 0.21397366 -8.5024776 5.6347814 2.4563578e-05 -4.0534236e-05 -0.071044438 0.15406421
161333333333.33 0.022150807 0.21326368 -7.9795246 6.4180694 2.7790918e-05 -5.2292249e-05 -0.060504895 0.15790406
161400000000 0.038495183 0.20658211 -7.322928 7.1678596 1.5394418e-05 -2.2115404e-05 -0.050659932 0.16098467
161466666666.67 0.051043637 0.20027615 -6.6201482 7.7994556 -1.3595236e-06 -4.0018484e-05 -0.040311545 0.1629681
161533333333.33 0.063316554 0.19527885 -5.889184 8.4452887 -8.0057134e-06 -3.5134479e-05 -0.029517479 0.16483708
161600000000 0.075152159 0.18832012 -5.1181984 8.9643831 -1.8087349e-05 -3.9760285e-05 -0.019423388 0.16605723
161666666666.67 0.085805409 0.17956364 -4.2483826 9.393445 2.338134e-06 -2.5991943e-05 -0.0084983483 0.16629615
161733333333.33 0.098517872 0.1704665 -3.3668964 9.8087187 -1.9777381e-05 -4.7391408e-05 0.0024531558 0.1654326
161800000000 0.10980624 0.16399235 -2.4300983 10.12285 -1.0456533e-05 -2.6280757e-06 0.012779424 0.1643693
161866666666.67 0.11739241 0.15134811 -1.4516764 10.312171 -4.2283584e-05 -5.3630632e-05 0.022871647 0.16232386
161933333333.33 0.12718581 0.13947518 -0.49728632 10.429597 -2.4426992e-05 -2.4415844e-05 0.033323109 0.15940011
162000000000 0.13448152 0.12689087 0.48087215 10.447062 -1.5415799e-05 -5.3804906e-05 0.042835984 0.15659203
162066666666.67 0.1396687 0.11627266 1.5002816 10.424833 -3.8364757e-05 -2.3623219e-05 0.053205524 0.15258704
162133333333.33 0.14544488 0.10075094 2.4929154 10.247005 -4.6739711e-05 -6.02613e-06 0.062420946 0.14823557
162200000000 0.14763619 0.08769086 3.4562249 9.9806881 -2.8513217e-05 -1.0866785e-05 0.071210772 0.14285697
162266666666.67 0.15182556 0.076585084 4.4202256 9.6511192 -2.2363902e-05 -7.033912e-06 0.080174848 0.13715252
162333333333.33 0.15148172 0.065562814 5.3415051 9.2323589 -2.3232853e-05 7.2144994e-06 0.089226663 0.13065487
162400000000 0.15618299 0.054962061 6.5254273 8.4995556 -3.4542783e-05 -1.0707009e-05 0.098287418 0.1223366
162466666666.67 0.15629964 0.042398199 7.3512602 7.80264 -2.6875452e-05 -1.171967e-05 0.10574001 0.11407404
162533333333.33 0.15563759 0.027276337 8.0462894 7.0259147 -3.1211341e-05 7.4595155e-06 0.11189388 0.1055987
162600000000 0.15256241 0.017443825 8.6872568 6.2779422 -2.9431234e-05 -1.9277479e-05 0.11795171 0.097187139
162666666666.67 0.15104161 0.0061953217 9.3199816 5.41502 -2.1136491e-05 -4.8414067e-06 0.12383407 0.087984324
162733333333.33 0.14873612 -0.005555883 9.8062458 4.5224972 -3.3980097e-05 6.1650571e-06 0.12865008 0.078363776
162800000000 0.1440668 -0.017222516 10.233919 3.6249666 -1.6408118e-05 5.3927179e-06 0.13282807 0.069383934
162866666666.67 0.14142488 -0.028143883 10.536009 2.6753757 -3.2065491e-05 1.0289239e-05 0.13614094 0.05862619
162933333333.33 0.13411072 -0.034083612 10.789568 1.7218647 -1.251112e-05 1.9416104e-05 0.13885659 0.049655236
163000000000 0.12597293 -0.045047626 10.87085 0.71609664 -1.058186e-05 3.8040645e-07 0.14107814 0.039967343
163066666666.67 0.12076434 -0.053024143 10.969218 -0.25766182 -3.1535652e-05 -1.161954e-05 0.14239515 0.03009936
163133333333.33 0.1120033 -0.061138302 10.901217 -1.2534609 -2.805039e-05 2.5164298e-05 0.14296556 0.020294994
163200000000 0.10443016 -0.067011341 10.783238 -2.2636003 -1.3974708e-05 1.8785322e-05 0.1426104 0.010914627
163266666666.67 0.093081757 -0.073477894 10.498143 -3.2668157 -1.516128e-05 1.6746799e-05 0.14163631 9.9642202e-05
163333333333.33 0.08906009 -0.079229809 10.16832 -4.2329879 -2.708437e-05 2.7895476e-06 0.13968557 -0.010041192
163400000000 0.077154718 -0.082194902 9.6932135 -5.2288723 -7.9545789e-06 3.5492536e-05 0.1378133 -0.020182483
163466666666.67 0.067712665 -0.089040838 9.1562872 -6.1145544 -2.5938654e-05 3.608684e-06 0.13445483 -0.030426532
163533333333.33 0.061688773 -0.091528632 8.5551777 -7.0015993 -2.4355257e-05 1.3756339e-05 0.13067688 -0.040130418
163600000000 0.050969604 -0.093840048 7.8443422 -7.8258715 -1.3416838e-05 1.3020792e-05 0.12612604 -0.049669191
163666666666.67 0.041739836 -0.096233197 7.0791626 -8.5307446 -1.0102383e-05 7.1733712e-07 0.12121929 -0.058942653
163733333333.33 0.030592814 -0.096279278 6.2500405 -9.1909685 -1.333697e-05 3.809929e-05 0.11545304 -0.067594752
163800000000 0.021626869 -0.095734306 5.3605347 -9.7651691 -1.7327859e-05 4.0460378e-05 0.10905544 -0.076032624
163866666666.67 0.014649116 -0.093436465 4.4227901 -10.213909 -4.966058e-06 2.2618537e-05 0.10159987 -0.083459489
163933333333.33 0.0043256879 -0.095342115 3.4002502 -10.630308 -9.2154814e-06 2.5875659e-05 0.094472401 -0.090427853
164000000000 -0.0058671013 -0.091469236 2.4083242 -10.935849 -7.9451675e-06 1.6286926e-05 0.086729623 -0.097536191
164066666666.67 -0.013114234 -0.08733324 1.3482512 -11.146124 -2.2876369e-05 3.1362022e-05 0.078468144 -0.1036678
164133333333.33 -0.018299788 -0.083462097 0.2974534 -11.215974 -1.1378705e-05 2.6813432e-05 0.069563165 -0.10861897
164200000000 -0.027376214 -0.079149686 -0.7629137 -11.217571 9.3896597e-07 2.9183244e-05 0.061210793 -0.11347508
164266666666.67 -0.033559263 -0.076872729 -1.8284714 -11.149477 6.1282094e-06 3.155685e-05 0.051630702 -0.11798112
164333333333.33 -0.040458936 -0.071931846 -2.8660917 -10.939011 -6.66706e-07 3.4403907e-05 0.042496234 -0.12129906
164400000000 -0.044136021 -0.066026129 -3.9435301 -10.719464 2.7980568e-06 3.0885472e-05 0.032116115 -0.12434453
164466666666.67 -0.049217302 -0.060889535 -4.9014692 -10.142303 6.0993361e-06 2.9092675e-05 0.022147361 -0.12368394
164533333333.33 -0.054771099 -0.053602852 -5.827096 -9.6970997 2.8033261e-05 3.1607262e-05 0.013685828 -0.12584984
164600000000 -0.058927905 -0.047289647 -6.815515 -9.1533737 2.6460277e-05 2.5866917e-05 0.0027043596 -0.12736131
164666666666.67 -0.060920883 -0.04273605 -7.6316824 -8.4375086 1.7845628e-05 3.0015521e-05 -0.0076391995 -0.12557422
164733333333.33 -0.06545189 -0.037309557 -8.31991 -7.7469397 2.9475746e-05 1.3817711e-05 -0.016832927 -0.12368769
164800000000 -0.067840323 -0.030365234 -9.0504494 -6.8992195 1.315082e-05 3.642113e-05 -0.026686981 -0.12216277
164866666666.67 -0.066981375 -0.022577459 -9.7524595 -5.9881654 2.9864032e-05 7.573015e-06 -0.036538623 -0.1198044
164933333333.33 -0.066964522 -0.016104816 -10.187624 -5.0497646 3.7481452e-05 2.7232976e-05 -0.045731183 -0.11589688
165000000000 -0.066860475 -0.010448524 -10.684136 -4.0657268 2.4157671e-05 1.1690814e-05 -0.055235069 -0.11208469
165066666666.67 -0.065339535 -0.002748413 -11.02545 -3.035917 2.6725753e-05 2.557378e-05 -0.064040035 -0.1073312
165133333333.33 -0.067645192 0.0044520758 -11.294086 -1.9677315 3.1151834e-05 1.5014111e-05 -0.072174624 -0.10190967
165200000000 -0.063290998 0.011456503 -11.451479 -0.90103543 4.8335402e-05 -1.2115654e-05 -0.079885736 -0.096136257
165266666666.67 -0.060215652 0.017308643 -11.472883 0.18366861 3.9890463e-05 -1.0220629e-06 -0.087040611 -0.089579895
165333333333.33 -0.058408145 0.020642117 -11.370911 1.2522109 3.2321372e-05 6.6797757e-06 -0.093808606 -0.082700573
165400000000 -0.056817837 0.025887573 -11.243877 2.4170971 4.6707886e-05 -5.1042416e-06 -0.099983558 -0.075603679
165466666666.67 -0.052473836 0.031204946 -10.926355 3.4232969 4.567008e-05 -1.1625631e-05 -0.10538153 -0.067627303
165533333333.33 -0.047007766 0.035477102 -10.593058 4.4455786 2.7740263e-05 -1.253781e-05 -0.11042102 -0.060072143
165600000000 -0.046840422 0.037397332 -10.080355 5.3512263 4.435809e-05 -1.9567813e-05 -0.11468139 -0.051364917
165666666666.67 -0.041070569 0.044583108 -9.5219936 6.2695217 4.1353018e-05 -3.6664642e-06 -0.11836019 -0.042396411
165733333333.33 -0.036282349 0.04840637 -8.9248457 7.1463947 5.2331157e-05 -1.6336055e-05 -0.12113678 -0.034221116
165800000000 -0.034241695 0.047267877 -8.2434006 7.9186211 3.7935828e-05 -3.0372068e-05 -0.12364372 -0.025053639
165866666666.67 -0.029283382 0.04762575 -7.403348 8.6919117 1.5026706e-05 -4.3079679e-05 -0.12567207 -0.015384749
165933333333.33 -0.02414022 0.051443137 -6.5455141 9.4527473 2.60714e-05 -3.9142549e-05 -0.12761694 -0.0054259617
166000000000 -0.01936865 0.052618574 -5.7181587 9.922081 1.4897126e-05 -5.5223878e-05 -0.12741132 0.0031801239
166066666666.67 -0.014116801 0.054186389 -4.7430763 10.421003 2.1963328e-05 -5.6292949e-05 -0.12726612 0.012501705
166133333333.33 -0.009874885 0.053515375 -3.7654073 10.806415 1.0740994e-05 -3.2116597e-05 -0.12599373 0.021086754
166200000000 -0.0060544126 0.053479254 -2.7338071 11.110203 6.2540221e-06 -5.1450086e-05 -0.12455741 0.031161904
166266666666.67 -0.00097649009 0.052754302 -1.6766278 11.352457 1.4593548e-05 -3.1459767e-05 -0.12217004 0.040262934
166333333333.33 0.0033013225 0.052492917 -0.59377289 11.496402 -3.2671451e-06 -5.7155856e-05 -0.11953392 0.048616428
166400000000 0.0076440461 0.049972486 0.49476248 11.46129 1.1676695e-05 -4.5310768e-05 -0.11606194 0.057126299
166466666666.67 0.0091506951 0.0476541 1.5569086 11.417997 -7.8411886e-06 -4.9320108e-05 -0.11231226 0.065322153
166533333333.33 0.013083182 0.046399362 2.6639817 11.220609 -2.3445851e-05 -3.9046419e-05 -0.10718355 0.073012777
166600000000 0.01889275 0.042203113 3.645602 10.983409 -9.2215796e-06 -4.2823893e-05 -0.10216275 0.080203623
166666666666.67 0.019684494 0.038059972 4.6851954 10.56519 -3.1283435e-05 -4.4975768e-05 -0.09653648 0.086905196
166733333333.33 0.023997366 0.033554822 5.6684532 10.050735 -2.8923292e-05 -2.4499152e-05 -0.089776807 0.093192965
166800000000 0.026455032 0.031753574 6.5167232 9.5122337 -2.7641279e-05 -4.4159002e-05 -0.08348038 0.098993182
166866666666.67 0.028075002 0.029455084 7.3758068 8.8124733 -2.4213183e-05 -5.4174689e-05 -0.075868487 0.10435334
166933333333.33 0.027592363 0.024627725 8.1595125 8.0765982 -4.0788258e-05 -4.4305947e-05 -0.068467736 0.10977156
167000000000 0.028463747 0.022546984 8.882494 7.2781448 -4.7420988e-05 -3.988493e-05 -0.060262613 0.11423029
167066666666.67 0.028309906 0.016502043 9.5438452 6.4223914 -2.8353563e-05 -3.4964025e-05 -0.051765207 0.11825928
167133333333.33 0.030656124 0.015679982 10.052113 5.4999561 -5.3585143e-05 -8.2554288e-06 -0.043708421 0.1214871
167200000000 0.030599827 0.01034592 10.571726 4.5812426 -6.8942165e-05 -7.133789e-06 -0.035543952 0.12399854
167266666666.67 0.029598217 0.0050979368 10.97866 3.5284324 -4.8386519e-05 -1.1503597e-05 -0.027149897 0.126274
167333333333.33 0.026421709 0.0024507288 11.23246 2.5186462 -6.588515e-05 2.2427412e-07 -0.018350199 0.12760571
167400000000 0.027477391 -0.00051394524 11.441686 1.4625559 -4.8853104e-05 -8.6672335e-06 -0.0093817832 0.12867075
167466666666.67 0.024881288 -0.0042435694 11.537535 0.41878986 -5.1125659e-05 1.8253657e-05 -0.00047384575 0.12856655
167533333333.33 0.024378933 -0.0065233447 11.520333 -0.68289852 -5.2984458e-05 1.4057339e-05 0.008151684 0.12803179
167600000000 0.02174782 -0.006781321 11.396596 -1.7894914 -4.8269681e-05 2.2569815e-05 0.016763069 0.12669158
167666666666.67 0.018441381 -0.0097754989 11.181759 -2.8242269 -5.0728213e-05 2.5574052e-05 0.024798568 0.12476297
167733333333.33 0.015998691 -0.015242841 10.863377 -3.8371949 -5.2486066e-05 2.5155705e-05 0.032662168 0.12222854
167800000000 0.010204578 -0.014680392 10.484651 -4.8226547 -1.6767455e-05 4.3609038e-05 0.040158797 0.11976662
167866666666.67 0.0059403339 -0.014690604 9.9807377 -5.7811179 -2.5671612e-05 3.5386074e-05 0.0485368 0.11591575
167933333333.33 0.0052260444 -0.014681311 9.3654709 -6.7065201 -4.0575564e-05 5.4464072e-05 0.056350142 0.11166115
168000000000 -3.2893382e-05 -0.016609989 8.7099247 -7.5509191 -3.7248603e-05 4.7975398e-05 0.063245974 0.10682448
168066666666.67 -0.0035068041 -0.016846446 7.9576454 -8.2885847 -3.23032e-05 4.3710897e-05 0.0699367 0.1013156
168133333333.33 -0.0068456526 -0.014379557 7.1873894 -8.9593077 -2.2288756e-05 5.6877485e-05 0.076028153 0.096094802
168200000000 -0.011175328 -0.015368183 6.2459812 -9.5894003 -3.348451e-05 5.9816601e-05 0.081681289 0.089647539
168266666666.67 -0.017954623 -0.015244411 5.3809042 -10.121181 -1.5662705e-05 4.0685471e-05 0.087262429 0.083879404
168333333333.33 -0.021014132 -0.013114968 4.4571137 -10.550443 -1.7544698e-07 3.8665952e-05 0.091960192 0.077340454
168400000000 -0.024368938 -0.012930806 3.4214864 -10.97338 5.0952585e-06 4.8517439e-05 0.096420974 0.070483267
168466666666.67 -0.026324181 -0.0097283442 2.4220281 -11.207986 -1.132731e-05 5.6811914e-05 0.10032959 0.06325902
168533333333.33 -0.030606415 -0.0070581045 1.4353266 -11.377409 2.3108672e-05 4.3802087e-05 0.10391967 0.05601193
168600000000 -0.033065386 -0.0044296104 0.32967377 -11.428297 1.0534907e-05 7.655198e-05 0.10681817 0.04854285
168666666666.67 -0.036999237 0.00030282512 -0.71770501 -11.406078 2.7661088e-05 5.6730165e-05 0.1092215 0.040849067
168733333333.33 -0.038808577 0.0033875313 -1.7618561 -11.32065 1.1229833e-05 4.035755e-05 0.11076583 0.032767359
168800000000 -0.041624874 0.0073779309 -2.8145864 -11.068435 4.0015748e-05 3.5646077e-05 0.11214651 0.024395734
168866666666.67 -0.040296905 0.0098675136 -3.8144381 -10.759199 3.4969562e-05 4.009459e-05 0.11261824 0.016087614
168933333333.33 -0.043477252 0.014180924 -4.8143253 -10.349799 4.1613217e-05 3.1703246e-05 0.11201233 0.0080338158
169000000000 -0.043250713 0.019254811 -5.7582965 -9.8855629 4.7533827e-05 2.5253223e-05 0.11159329 0.00013371557
169066666666.67 -0.044177536 0.023338307 -6.625886 -9.3457022 5.2626838e-05 3.3361321e-05 0.11005406 -0.008074481
169133333333.33 -0.043146104 0.028955216 -7.4321928 -8.7252874 4.4737852e-05 -2.9369526e-06 0.10796809 -0.01581171
169200000000 -0.043830425 0.033765189 -8.1805449 -8.005085 5.1061412e-05 1.3208048e-05 0.10554624 -0.022799976
169266666666.67 -0.043449234 0.038963187 -8.8775988 -7.2234535 6.907151e-05 1.6428161e-05 0.1024262 -0.030092146
169333333333.33 -0.042181857 0.044261523 -9.468935 -6.3093524 6.11961e-05 -6.2891613e-06 0.098640867 -0.036980398
169400000000 -0.04027003 0.047301572 -10.017956 -5.4160194 6.6538043e-05 -7.3999054e-06 0.094428837 -0.04389926
169466666666.67 -0.037336044 0.053278197 -10.482376 -4.3971548 5.4824137e-05 -3.9552033e-06 0.089420922 -0.051090281
169533333333.33 -0.03396561 0.059806339 -10.808049 -3.5078759 5.384754e-05 -1.379015e-06 0.084190607 -0.055718455
169600000000 -0.031676549 0.063666977 -11.125453 -2.4558754 4.4411594e-05 -3.9670158e-06 0.079150543 -0.060838543
169666666666.67 -0.026823692 0.069270261 -11.259512 -1.4305081 6.4240077e-05 -1.5979087e-05 0.073900253 -0.065476179
169733333333.33 -0.023873551 0.072242662 -11.329351 -0.44177336 4.430339e-05 -2.5318162e-05 0.068092681 -0.069872886
169800000000 -0.019762674 0.076912574 -11.318853 0.64858007 5.0842929e-05 -2.5420131e-05 0.061804444 -0.073938094
169866666666.67 -0.014286181 0.08166831 -11.222734 1.6747935 5.1086765e-05 -2.5940362e-05 0.055379778 -0.077558443
169933333333.33 -0.0091369031 0.08395236 -10.984342 2.6455138 5.5876448e-05 -2.3508852e-05 0.04878106 -0.080060259
170000000000 -0.004205551 0.08818499 -10.68583 3.7014585 3.2158958e-05 -5.6473735e-05 0.042138256 -0.082415111
170066666666.67 0.0014347397 0.088769823 -10.271378 4.5831904 5.6379304e-05 -5.1075229e-05 0.035443787 -0.083779618
170133333333.33 0.0061494578 0.090046577 -9.7829628 5.5838633 1.7230961e-05 -5.4038232e-05 0.028470002 -0.085273959
170200000000 0.013854615 0.09368144 -9.2564449 6.384006 3.6693546e-05 -5.7726538e-05 0.021377627 -0.085613146
170266666666.67 0.021564435 0.093130484 -8.650898 7.2205315 2.4101908e-05 -6.1488347e-05 0.014375005 -0.08585383
170333333333.33 0.026349256 0.095068946 -7.9054661 7.9899292 1.5725345e-05 -8.0881808e-05 0.0080835074 -0.085623756
170400000000 0.034036737 0.093880445 -7.1397552 8.68542 1.910319e-06 -5.3420776e-05 0.0016327836 -0.084889099
170466666666.67 0.04071404 0.094943561 -6.2890081 9.2448807 -4.1711028e-06 -7.1340524e-05 -0.0044434983 -0.083222687
170533333333.33 0.045695383 0.091640182 -5.4166164 9.7806282 -4.4374747e-06 -7.2858777e-05 -0.0099354628 -0.081828959
170600000000 0.05752863 0.090240963 -4.508111 10.253469 5.1845491e-06 -7.9975798e-05 -0.015255995 -0.079714812
170666666666.67 0.061765891 0.08895909 -3.5147724 10.572592 -1.3259069e-05 -3.9200913e-05 -0.021009177 -0.077517241
170733333333.33 0.067075066 0.085052088 -2.4917843 10.888652 -1.9083767e-05 -6.2469975e-05 -0.026960723 -0.074640393
170800000000 0.073740564 0.082757115 -1.4373519 11.015875 -3.6321493e-05 -6.9559414e-05 -0.032655843 -0.071013041
170866666666.67 0.081034087 0.07757467 -0.4278264 11.115236 -5.6740544e-05 -6.3994703e-05 -0.038702905 -0.066827431
170933333333.33 0.08590474 0.073582754 0.52694708 11.06649 -5.437791e-05 -6.3372834e-05 -0.044151619 -0.062279146
171000000000 0.092147999 0.067204937 1.5547061 10.974834 -4.2976157e-05 -5.6853271e-05 -0.049377233 -0.057446133
171066666666.67 0.097367555 0.062758461 2.5496535 10.803074 -6.2409061e-05 -6.1210929e-05 -0.053566378 -0.052425891
171133333333.33 0.10344161 0.05461207 3.444191 10.506174 -7.5944321e-05 -5.4421354e-05 -0.056714587 -0.046954416
171200000000 0.10786122 0.049737003 4.3645535 10.172776 -6.8004083e-05 -1.4928426e-05 -0.059884891 -0.041615285
171266666666.67 0.11080746 0.0424807 5.3128395 9.7091122 -6.5086693e-05 -4.0549119e-05 -0.062684879 -0.035856232
171333333333.33 0.11378086 0.03393539 6.1641865 9.179945 -7.2015289e-05 -3.2059597e-05 -0.06446474 -0.030543562
171400000000 0.11917508 0.029481769 6.9646626 8.5670214 -6.6936416e-05 -1.7056529e-05 -0.066133484 -0.024241531
171466666666.67 0.12255578 0.017098051 7.7475176 7.8664694 -7.8503072e-05 -1.7456518e-05 -0.067210048 -0.018041503
171533333333.33 0.12564707 0.0097626448 8.4579191 7.1009092 -8.2191407e-05 -6.5227177e-06 -0.067918226 -0.011879265
171600000000 0.12708625 0.0027669743 8.9689932 6.2538033 -8.8863992e-05 1.8981555e-06 -0.06733866 -0.0056843329
171666666666.67 0.12663494 -0.0057604704 9.3801498 5.5022068 -9.3157963e-05 2.3142406e-05 -0.066601157 -0.00032756431
171733333333.33 0.1271985 -0.013847031 9.8607941 4.6662784 -7.9021302e-05 1.0409072e-05 -0.065890633 0.0049690753
171800000000 0.1254044 -0.024815932 10.24651 3.7647035 -7.4956915e-05 2.7306744e-05 -0.064994767 0.0099068675
171866666666.67 0.12632991 -0.031525102 10.556753 2.7108991 -7.6381919e-05 3.4698332e-05 -0.063736886 0.016361631
171933333333.33 0.12339605 -0.039459307 10.731282 1.7610774 -6.7823334e-05 3.8713559e-05 -0.061629076 0.021770893
172000000000 0.12141038 -0.048713949 10.846845 0.72249746 -7.7823839e-05 4.5280358e-05 -0.05882496 0.026596133
172066666666.67 0.11688831 -0.057479799 10.866739 -0.25497913 -7.9220059e-05 4.7475351e-05 -0.056078408 0.031350099
172133333333.33 0.11487556 -0.062483601 10.742899 -1.2058694 -4.5255965e-05 5.0516326e-05 -0.052695021 0.035683289
172200000000 0.10754533 -0.072364345 10.593811 -2.2385643 -5.4140168e-05 5.8955371e-05 -0.049077645 0.039770767
172266666666.67 0.10242753 -0.079387531 10.38493 -3.1698163 -5.0161394e-05 8.4895313e-05 -0.045204811 0.043536495
172333333333.33 0.096841291 -0.086561054 10.053152 -4.0764623 -5.2616389e-05 7.7335193e-05 -0.040796246 0.047162786
172400000000 0.091585651 -0.094051301 9.6119156 -4.9885283 -2.7820233e-05 9.0261354e-05 -0.036465276 0.050552089
172466666666.67 0.08527419 -0.099813767 9.1034403 -5.9525909 -1.5276542e-05 9.3047449e-05 -0.031333309 0.05325155
172533333333.33 0.077168956 -0.1077475 8.4882813 -6.7079 -2.3847255e-05 9.1624199e-05 -0.026351586 0.055417843
172600000000 0.066493854 -0.11213708 7.794035 -7.4020948 -5.7625366e-06 8.1427497e-05 -0.021444678 0.057365213
172666666666.67 0.059331454 -0.11748809 7.0779738 -7.987329 4.4858352e-06 0.00010764114 -0.016241916 0.058549285
172733333333.33 0.050469022 -0.12112451 6.3589387 -8.6140318 -3.103758e-06 8.8518202e-05 -0.011320011 0.059376456
172800000000 0.043034039 -0.12604164 5.5180674 -9.1642637 1.720275e-05 9.9976525e-05 -0.0063311588 0.059991185
172866666666.67 0.030530389 -0.12824439 4.7308612 -9.5642786 8.548901e-06 0.00010478352 -0.001249887 0.060345087
172933333333.33 0.021896226 -0.1313308 3.8138826 -9.9225664 3.4477514e-05 0.00010499691 0.0041031381 0.060100742
173000000000 0.012344753 -0.13054091 2.8940601 -10.216635 2.7849437e-05 9.5601237e-05 0.009147984 0.059490606
173066666666.67 0.0029675141 -0.13432106 1.9928977 -10.439798 3.076022e-05 0.0001028094 0.013982425 0.05860965
173133333333.33 -0.0077049173 -0.1334914 1.0002689 -10.469418 5.7414247e-05 8.1163402e-05 0.018681362 0.056842856
173200000000 -0.017219814 -0.13347296 0.017322965 -10.484859 6.2583575e-05 7.2568255e-05 0.023335211 0.054632101
173266666666.67 -0.024711762 -0.13284349 -0.91233301 -10.456549 7.0156857e-05 8.8201472e-05 0.02789098 0.052408196
173333333333.33 -0.036101177 -0.12937422 -1.8786032 -10.361612 7.0425071e-05 7.3542127e-05 0.03273895 0.049595818
173400000000 -0.045944955 -0.12716466 -2.8210614 -10.149087 6.970024e-05 6.8647663e-05 0.037200987 0.046587035
173466666666.67 -0.056875568 -0.12343535 -3.6892107 -9.8511143 8.0201666e-05 6.4093932e-05 0.041052137 0.043739855
173533333333.33 -0.065301359 -0.12077772 -4.570848 -9.3812771 9.2910777e-05 5.4211505e-05 0.044281434 0.039958715
173600000000 -0.0742376 -0.11262903 -5.3458233 -8.8734159 9.6783995e-05 6.5036496e-05 0.046778515 0.035823237
173666666666.67 -0.08141242 -0.11027572 -6.0874496 -8.4304161 0.00010891814 3.6541674e-05 0.049566064 0.032113615
173733333333.33 -0.091390058 -0.10106903 -6.8272662 -7.8145275 0.00010617469 2.4559882e-05 0.052458718 0.028114274
173800000000 -0.10085022 -0.094215058 -7.4859366 -7.0992665 0.00011960252 1.3713487e-05 0.054774627 0.023889454
173866666666.67 -0.10835835 -0.084144101 -8.1309366 -6.299099 0.00010808314 1.1909033e-06 0.056623481 0.019165162
173933333333.33 -0.11669621 -0.075630195 -8.6986647 -5.5129437 0.00011391727 -7.6779033e-06 0.058157198 0.014490902
174000000000 -0.1252328 -0.063697629 -9.1299562 -4.7413521 0.0001141911 2.9298826e-07 0.059009157 0.010248266
174066666666.67 -0.12761755 -0.05503393 -9.5346174 -3.8158207 0.00011208462 -2.5468034e-05 0.060064487 0.0053319437
174133333333.33 -0.13414793 -0.043669645 -9.8138752 -2.9562559 0.00010957046 -2.3650788e-05 0.060388211 0.00063524581
174200000000 -0.1370343 -0.031886365 -9.9991283 -2.0175076 0.00011543433 -5.5888428e-05 0.060367908 -0.0042157662
174266666666.67 -0.13978778 -0.021566685 -10.145464 -1.0925174 0.00011368709 -6.6247318e-05 0.060142718 -0.0089347884
174333333333.33 -0.14208913 -0.0072372761 -10.140366 -0.19087434 0.00010389524 -6.117249e-05 0.058991127 -0.013422794
174400000000 -0.14446443 0.0049975291 -10.064056 0.75755787 9.3808689e-05 -8.1842132e-05 0.057560973 -0.018034227
174466666666.67 -0.14595729 0.015899148 -9.9453144 1.6161337 9.902996e-05 -8.7187836e-05 0.056083471 -0.021896701
174533333333.33 -0.14382641 0.027578564 -9.7384367 2.5295768 8.8471876e-05 -0.0001013381 0.054314058 -0.025948629
174600000000 -0.1450793 0.039982419 -9.4800167 3.3725958 9.0922054e-05 -0.0001112797 0.052179649 -0.030302495
174666666666.67 -0.14187454 0.050894294 -9.0909691 4.1730251 6.5882021e-05 -0.00010760715 0.049601074 -0.034088828
174733333333.33 -0.14021839 0.063566789 -8.6930218 4.9750252 4.863349e-05 -0.00012201129 0.046851009 -0.038098667
174800000000 -0.13337688 0.073961653 -8.1076269 5.7571516 5.3417221e-05 -0.00012740116 0.043516837 -0.041330993
174866666666.67 -0.12970388 0.083771057 -7.5864062 6.4611101 4.0116167e-05 -0.00012632622 0.040224727 -0.044614695
174933333333.33 -0.12335644 0.095896497 -6.9618163 7.0927243 2.311022e-05 -0.00014163945 0.036918331 -0.047235884
175000000000 -0.11976295 0.10773027 -6.3062625 7.6503119 9.3288036e-06 -0.00014139354 0.0331886 -0.050038584
175066666666.67 -0.11194161 0.11787196 -5.5223613 8.1964531 9.8608143e-07 -0.00013454453 0.029328991 -0.052366197
175133333333.33 -0.1030945 0.12538302 -4.7039633 8.6714029 -1.4340818e-05 -0.0001387705 0.025414821 -0.054172732
175200000000 -0.095974386 0.13385206 -3.9769206 8.987565 -2.4539473e-05 -0.00013810175 0.021752538 -0.055660777
175266666666.67 -0.085383303 0.13916191 -3.1362748 9.2626476 -2.9964936e-05 -0.00013347081 0.017813521 -0.056775868
175333333333.33 -0.074967407 0.1482117 -2.2360227 9.4907541 -4.133812e-05 -0.00013259139 0.013833398 -0.057703674
175400000000 -0.062916972 0.15527961 -1.4190078 9.6632347 -6.4754975e-05 -0.00011679249 0.0097168554 -0.058509313
175466666666.67 -0.050214667 0.15924849 -0.58354431 9.7358809 -5.3557385e-05 -0.00012605535 0.005895942 -0.058387898
175533333333.33 -0.041761596 0.16495007 0.30323982 9.6929169 -8.3895487e-05 -0.00012610937 0.0021061394 -0.058274668
175600000000 -0.028576881 0.16917282 1.2106138 9.5529413 -7.7629229e-05 -0.00011346761 -0.0020238254 -0.057832275
175666666666.67 -0.016301014 0.17279957 2.0754836 9.438015 -0.00010660302 -0.00010626159 -0.0062802061 -0.057399653
175733333333.33 -0.0010935143 0.17423944 2.9521973 9.1733618 -9.3640723e-05 -0.00010640202 -0.010301804 -0.056368724
175800000000 0.0096382946 0.17798069 3.7837718 8.8246508 -0.00012802196 -0.00010665257 -0.014036068 -0.055008065
175866666666.67 0.026776366 0.17715515 4.5641007 8.4267149 -0.000113506 -8.4554864e-05 -0.017481847 -0.05354882
175933333333.33 0.039578095 0.1752525 5.2505946 7.9266562 -0.00013453062 -6.56622e-05 -0.02094359 -0.051605314
176000000000 0.050090238 0.17693941 5.9396057 7.4347749 -0.00015338356 -7.6994409e-05 -0.023764772 -0.049081799
176066666666.67 0.066018134 0.17148697 6.5447426 6.8741064 -0.00014309386 -5.7077312e-05 -0.026221203 -0.047166549
176133333333.33 0.078827925 0.16872703 7.1883492 6.2599468 -0.00014882577 -5.7086832e-05 -0.029363643 -0.045062006
176200000000 0.092637137 0.1641463 7.7008338 5.4346828 -0.00015399298 -4.1164967e-05 -0.031877536 -0.042244464
176266666666.67 0.10627938 0.15830103 8.0751734 4.6793022 -0.00016076237 -2.3345283e-05 -0.033979345 -0.039211523
176333333333.33 0.11794801 0.15391444 8.4553366 3.9200826 -0.00017492143 -2.8701674e-05 -0.035752624 -0.036650613
176400000000 0.13024172 0.14451526 8.7442417 3.2051311 -0.00015235714 -1.0440548e-05 -0.037485905 -0.033918742
176466666666.67 0.14176904 0.13572693 9.0074368 2.411799 -0.0001758986 -1.1063625e-05 -0.038884249 -0.030956471
176533333333.33 0.1515197 0.12889257 9.1321716 1.5621653 -0.00017819826 2.4825971e-05 -0.040068857 -0.027551826
176600000000 0.16230249 0.1154369 9.2473793 0.71892548 -0.00017843765 4.829371e-05 -0.040803388 -0.024490995
176666666666.67 0.17141828 0.10620335 9.221487 -0.093413472 -0.0001610504 7.2497191e-05 -0.041360255 -0.021174114
176733333333.33 0.18194421 0.094688207 9.1397343 -0.93605757 -0.00014152538 6.2210136e-05 -0.041559223 -0.018032078
176800000000 0.1907745 0.082165092 8.9998074 -1.7130415 -0.0001477317 7.3078816e-05 -0.041366264 -0.015220297
176866666666.67 0.19535288 0.070208229 8.7988777 -2.5363755 -0.00014723162 0.00010517028 -0.041103546 -0.012088087
176933333333.33 0.20080097 0.053120404 8.5161648 -3.3652074 -0.0001446661 9.2565613e-05 -0.040804893 -0.0090395957
177000000000 0.20288077 0.042794183 8.1301079 -4.0115986 -0.00013046846 0.00011763054 -0.039709404 -0.0063285399
177066666666.67 0.20829327 0.028696075 7.698833 -4.7570515 -0.00013005064 0.00012104171 -0.038797174 -0.0037874207
177133333333.33 0.21233907 0.012979865 7.2239809 -5.4371524 -0.00012787414 0.00013341861 -0.037670821 -0.00094520766
177200000000 0.21394977 -0.0029553175 6.6985688 -6.0359559 -0.00010665026 0.00015407987 -0.036168702 0.0012545493
177266666666.67 0.21529482 -0.019413954 6.0564551 -6.6220975 -9.0951929e-05 0.00015592259 -0.034538243 0.0034018839
177333333333.33 0.21475799 -0.03153719 5.414258 -7.109561 -7.6093856e-05 0.00015659494 -0.032627039 0.0052447096
177400000000 0.2094736 -0.052518308 4.6990862 -7.5761156 -7.1647184e-05 0.00017322521 -0.030828476 0.0067419577
177466666666.67 0.20960139 -0.066233866 4.0567846 -7.9247479 -5.4611362e-05 0.00017795606 -0.028790876 0.00829418
177533333333.33 0.20559236 -0.08108481 3.3025279 -8.2231102 -4.0728592e-05 0.00017750335 -0.026686992 0.0093688574
177600000000 0.19900811 -0.098292515 2.5398326 -8.4366207 -3.2545962e-05 0.00018721021 -0.024607206 0.010105011
177666666666.67 0.19298699 -0.11085995 1.7378058 -8.6251392 -5.9341801e-06 0.00019400938 -0.021970939 0.010898676
177733333333.33 0.18686429 -0.12739021 0.9395709 -8.6956348 1.3832185e-05 0.00019727979 -0.019641165 0.011175117
177800000000 0.17666279 -0.13837165 0.17275852 -8.7058115 4.4574581e-06 0.00018665029 -0.017255291 0.011096212
177866666666.67 0.16880794 -0.15610959 -0.66544819 -8.7463112 2.9826093e-05 0.00020115566 -0.015193781 0.010754177
177933333333.33 0.15631056 -0.16944072 -1.512465 -8.5372276 5.1181163e-05 0.00018467304 -0.012814047 0.010713131
178000000000 0.14497583 -0.17823923 -2.200115 -8.3074398 5.883224e-05 0.00019224518 -0.010296079 0.0099315094
178066666666.67 0.13337286 -0.19144143 -2.9227087 -8.0791159 7.1681199e-05 0.0001849125 -0.0082372054 0.009329698
178133333333.33 0.12030473 -0.20112708 -3.620106 -7.7759795 8.517706e-05 0.00019001313 -0.0060154926 0.0079437345
178200000000 0.10697071 -0.21129605 -4.340487 -7.4035034 9.7800752e-05 0.00018703344 -0.0041280254 0.0062322742
178266666666.67 0.0923438 -0.21729049 -4.9288979 -6.896255 0.00012226617 0.00016087249 -0.0024893326 0.0052094008
178333333333.33 0.076746657 -0.22420056 -5.4789572 -6.3537745 0.00013559162 0.0001542909 -0.00085127144 0.003213614
178400000000 0.061432626 -0.2305142 -5.9846325 -5.8558035 0.0001463416 0.00016454939 0.00048490759 0.0017576697
178466666666.67 0.046655066 -0.23604047 -6.4532223 -5.2779498 0.00017612139 0.00013988859 0.0014328781 -0.00061154249
178533333333.33 0.028252739 -0.23852511 -6.9321923 -4.6310706 0.00019165379 0.00014026577 0.0025355525 -0.0029037313
178600000000 0.010618702 -0.24064849 -7.2486844 -3.9886048 0.00018852482 0.00011741446 0.0028984291 -0.0054186461
178666666666.67 -0.0042561442 -0.2441152 -7.5370803 -3.2847049 0.00018340664 0.00011452282 0.0028953685 -0.0079436321
178733333333.33 -0.023259124 -0.24388397 -7.7827072 -2.6298571 0.00020489187 9.9955796e-05 0.0028686065 -0.010311243
178800000000 -0.04050732 -0.24124715 -7.9390798 -1.8794881 0.00021968532 8.1756756e-05 0.002506041 -0.012949829
178866666666.67 -0.056985155 -0.2395035 -8.0409546 -1.1844795 0.00021561864 6.058914e-05 0.0017666654 -0.015480625
178933333333.33 -0.072733462 -0.236936 -8.0526218 -0.45892024 0.00022344795 6.192689e-05 0.00057699904 -0.018119343
179000000000 -0.089783512 -0.22806987 -8.0684986 0.27904981 0.0002234464 2.3723136e-05 -0.00040516752 -0.020676026
179066666666.67 -0.10806266 -0.22392577 -7.9992428 0.990798 0.00023868517 6.2703039e-06 -0.0019625938 -0.023289729
179133333333.33 -0.12436891 -0.21611467 -7.825573 1.6959033 0.00023889307 5.2909818e-06 -0.0037538204 -0.025670568
179200000000 -0.14025939 -0.20692085 -7.5865541 2.3661935 0.00024382285 -1.0132037e-05 -0.0062619485 -0.02805757
179266666666.67 -0.15400085 -0.19925854 -7.2952099 3.0661979 0.00024753585 -3.6725251e-05 -0.0087548858 -0.029853795
179333333333.33 -0.16940024 -0.18629853 -6.9538717 3.6526036 0.00025793666 -5.6297336e-05 -0.011056682 -0.031812146
179400000000 -0.18440697 -0.17805944 -6.5706959 4.2206039 0.00023043765 -7.287586e-05 -0.013909278 -0.033441771
179466666666.67 -0.19490631 -0.16461802 -6.0722456 4.7650084 0.00023820599 -9.476718e-05 -0.016814746 -0.034528464
179533333333.33 -0.20982468 -0.1511583 -5.6362739 5.2452154 0.00023862004 -0.00011933182 -0.020117007 -0.036223464
179600000000 -0.21969807 -0.13785136 -5.1225376 5.6899128 0.00021629107 -0.00013951122 -0.02339139 -0.03718783
179666666666.67 -0.2320998 -0.12527001 -4.6189971 6.0691752 0.0002155641 -0.00014681483 -0.026986804 -0.038231391
179733333333.33 -0.24178395 -0.10633635 -4.0475278 6.444149 0.00021104468 -0.00017657632 -0.030811474 -0.039016809
179800000000 -0.24790946 -0.092602223 -3.4173622 6.7254577 0.00019273104 -0.00018967292 -0.035345953 -0.03855579
179866666666.67 -0.25602305 -0.07479547 -2.8204753 6.9934716 0.00017461102 -0.00021101549 -0.038848475 -0.038513549
179933333333.33 -0.26277435 -0.05714418 -2.1820498 7.193491 0.00016035694 -0.00022774552 -0.0429658 -0.037873674
180000000000 -0.26375726 -0.03993766 -1.5166734 7.2729635 0.0001482857 -0.00023998848 -0.046936478 -0.036940303
180066666666.67 -0.26723611 -0.021027237 -0.8987112 7.35186 0.00013073941 -0.000246785 -0.051457629 -0.035758834
180133333333.33 -0.26891205 -0.0043645501 -0.25034308 7.3548741 0.00011116611 -0.00026436493 -0.055371203 -0.03374565
180200000000 -0.27191243 0.014229409 0.37474394 7.3234267 7.9757876e-05 -0.00027182139 -0.059408188 -0.031846944
180266666666.67 -0.27108529 0.030334122 1.0125978 7.2395535 6.1554441e-05 -0.00028661356 -0.06305369 -0.029622991
180333333333.33 -0.27132902 0.050903667 1.6540753 7.1010394 3.0858042e-05 -0.00029904183 -0.066989116 -0.027248763
180400000000 -0.26665777 0.070614651 2.2543993 6.8814788 3.2920092e-05 -0.00030870058 -0.07078141 -0.023949802
180466666666.67 -0.26344079 0.08764068 2.8005912 6.625751 8.5157371e-06 -0.00030658601 -0.074448928 -0.020476589
180533333333.33 -0.25832823 0.10593989 3.3743994 6.3003387 -3.645254e-05 -0.00030134103 -0.077784821 -0.016503915
180600000000 -0.2513333 0.12417264 3.8717809 5.9378452 -4.4562636e-05 -0.00031681545 -0.080758624 -0.012541352
180666666666.67 -0.24300461 0.14126682 4.3243842 5.5930648 -6.2319472e-05 -0.0003106556 -0.08346948 -0.0085694715
180733333333.33 -0.23319755 0.15901387 4.814436 5.2212768 -8.8145622e-05 -0.00029832602 -0.086706616 -0.0039822254
180800000000 -0.22316176 0.17694709 5.2622814 4.7674704 -0.00012238657 -0.00028885322 -0.089146838 0.0016328581
180866666666.67 -0.21472295 0.19194978 5.6500807 4.279573 -0.00014461088 -0.00027203231 -0.091472566 0.0070283562
180933333333.33 -0.20179026 0.20775566 5.9494009 3.7518187 -0.00015614103 -0.00028063304 -0.092618011 0.012735541
181000000000 -0.18784699 0.221228 6.230032 3.1916151 -0.00017538646 -0.000264189 -0.09390232 0.018554747
181066666666.67 -0.17516248 0.23533456 6.4643254 2.5935299 -0.00021339773 -0.00026428094 -0.094678819 0.024955165
181133333333.33 -0.1568386 0.2487148 6.6319752 1.9685619 -0.00024827037 -0.00024076106 -0.095009424 0.031178705
181200000000 -0.13883446 0.25856543 6.7281637 1.3772979 -0.00024590406 -0.00022844164 -0.094799936 0.037278876
181266666666.67 -0.12609145 0.26924139 6.7688704 0.82576156 -0.00027671352 -0.00019298629 -0.09448114 0.043496292
181333333333.33 -0.10858005 0.27859715 6.8199987 0.22836971 -0.00030168789 -0.00017065028 -0.093193509 0.050067957
181400000000 -0.089503735 0.2862646 6.7680984 -0.34755307 -0.00030484315 -0.0001717289 -0.09185835 0.056015119
181466666666.67 -0.071095735 0.29436523 6.6867461 -0.93315339 -0.0003309164 -0.00014456541 -0.089936346 0.062590986
181533333333.33 -0.053492695 0.29885611 6.5328236 -1.5221422 -0.00033356372 -0.00012551559 -0.08766593 0.068494767
181600000000 -0.032643504 0.30473724 6.3436046 -2.065738 -0.00035689271 -9.0985312e-05 -0.0851143 0.074324198
181666666666.67 -0.012963139 0.30751204 6.1203637 -2.6089494 -0.00034816668 -4.9688315e-05 -0.082103983 0.080413342
181733333333.33 0.0082465708 0.30834442 5.837676 -3.1141088 -0.00035466015 -3.5572652e-05 -0.07855615 0.086291365
181800000000 0.028079443 0.31029871 5.5204701 -3.6072931 -0.00037467605 2.3822649e-06 -0.074054949 0.091915026
181866666666.67 0.050479822 0.30617839 5.1387744 -4.0432773 -0.00035880803 5.6514982e-06 -0.069791988 0.097000271
181933333333.33 0.07027857 0.3022306 4.7396197 -4.4744873 -0.00035562605 6.2838633e-05 -0.064368822 0.1020853
182000000000 0.08953388 0.29977885 4.3297615 -4.8835936 -0.00035804822 9.2108312e-05 -0.058966827 0.10727862
182066666666.67 0.10984682 0.29179975 3.8557322 -5.1989398 -0.00036354273 0.00012772746 -0.053123631 0.1115827
182133333333.33 0.1284447 0.28639334 3.4083135 -5.4708357 -0.00034533435 0.00014117535 -0.046519138 0.11602012
182200000000 0.1514781 0.27890924 2.8861375 -5.7267437 -0.00035476233 0.0001862791 -0.03995787 0.11949302
182266666666.67 0.1702079 0.2696383 2.3772395 -5.9522138 -0.00034086639 0.00019766398 -0.033162452 0.123075
182333333333.33 0.18578272 0.2594651 1.8517523 -6.1167774 -0.00030839676 0.0002433983 -0.025919981 0.12619199
182400000000 0.20561197 0.24458633 1.3098724 -6.2440009 -0.00028552322 0.00024240764 -0.018714821 0.12883334
182466666666.67 0.22277376 0.23081313 0.7284416 -6.3244905 -0.00028802489 0.00027775718 -0.010806706 0.13092411
182533333333.33 0.23661056 0.21394478 0.15738201 -6.3383589 -0.00026041555 0.00031550854 -0.0026173219 0.13267706
182600000000 0.25113776 0.20281257 -0.38747951 -6.2980633 -0.00023926079 0.00033888908 0.0059546689 0.13355181
182666666666.67 0.26425195 0.18136275 -0.90476561 -6.1851292 -0.00019141556 0.00035769548 0.014169347 0.13373649
182733333333.33 0.28071052 0.16554323 -1.4419928 -6.0673771 -0.00017668671 0.00037162832 0.022765463 0.13293231
182800000000 0.29025397 0.14712031 -1.9578887 -5.8710036 -0.00015902515 0.00039481671 0.030875035 0.13224544
182866666666.67 0.3035816 0.12334561 -2.4899378 -5.6403675 -0.00013649967 0.00041171213 0.038779721 0.1306943
182933333333.33 0.31072071 0.10360332 -2.9594114 -5.3677592 -8.1853148e-05 0.00041355274 0.047242284 0.12842397
183000000000 0.31533736 0.084306836 -3.4012699 -5.0351243 -5.1323732e-05 0.00042214827 0.055907615 0.12613335
183066666666.67 0.32310423 0.059666149 -3.811769 -4.7232614 -3.845973e-05 0.00044327485 0.063795395 0.1229517
183133333333.33 0.32595789 0.040619031 -4.1886978 -4.3194695 1.9108498e-05 0.00043531781 0.071287774 0.11903952
183200000000 0.3269783 0.016019583 -4.4962792 -3.9262371 3.670431e-05 0.00044767809 0.07882271 0.11473797
183266666666.67 0.33192894 -0.0029435279 -4.7637362 -3.5025313 8.1850987e-05 0.00043151886 0.085014895 0.10969195
183333333333.33 0.32926387 -0.02546905 -5.0774741 -3.0639992 0.00010575222 0.00045287085 0.093387567 0.10532219
183400000000 0.32646787 -0.049981285 -5.2875972 -2.5699015 0.00014791146 0.00042523904 0.10056941 0.099344321
183466666666.67 0.32351071 -0.067932315 -5.4698515 -2.123909 0.0001699822 0.0004272082 0.10663848 0.093152605
183533333333.33 0.32029855 -0.094523951 -5.6449976 -1.5916734 0.00020516894 0.00041362661 0.11255859 0.086733118
183600000000 0.30579555 -0.10999665 -5.6975465 -1.0976183 0.00023620154 0.00038617 0.11874482 0.078991599
183666666666.67 0.29915476 -0.135169 -5.736517 -0.56855452 0.00027325985 0.00037602798 0.12291045 0.070977822
183733333333.33 0.28830838 -0.1534462 -5.7308254 -0.051307201 0.00029478356 0.00035898504 0.12753057 0.062757462
183800000000 0.27846462 -0.16987348 -5.6976347 0.42739505 0.00034389712 0.00032967012 0.13157319 0.054603089
183866666666.67 0.26301146 -0.19259375 -5.6100287 0.92065978 0.00035165265 0.00030701974 0.13563105 0.046485137
183933333333.33 0.24806127 -0.20957574 -5.4603782 1.4226953 0.0004010151 0.00028025388 0.13853146 0.037186626
184000000000 0.23448889 -0.22467537 -5.3179841 1.8539624 0.00041505418 0.00024525155 0.14059643 0.028399097
184066666666.67 0.21767223 -0.24162367 -5.1268873 2.3226142 0.00043384478 0.00020052078 0.14305824 0.019480746
184133333333.33 0.19941568 -0.25919893 -4.8766375 2.761584 0.00046973114 0.00018076226 0.1443979 0.0097037032
184200000000 0.18035467 -0.2697084 -4.5508337 3.1922054 0.00046203707 0.00014066165 0.14407447 -0.00094554201
184266666666.67 0.16322298 -0.27984524 -4.2164845 3.5160251 0.0004703158 0.00010376028 0.14310072 -0.010007296
184333333333.33 0.14080025 -0.29152861 -3.8898439 3.8394344 0.00049766048 5.4858658e-05 0.14221939 -0.019036926
184400000000 0.1170665 -0.29870465 -3.5370917 4.1651721 0.00049971504 2.5906193e-05 0.14189735 -0.028816555
184466666666.67 0.099444173 -0.30791807 -3.1712368 4.452704 0.00049166637 -1.1188007e-05 0.14004247 -0.038069982
184533333333.33 0.072271727 -0.31309131 -2.7411187 4.6644192 0.00050285796 -5.2783202e-05 0.1377622 -0.047194734
184600000000 0.052366413 -0.31886482 -2.3143027 4.8803902 0.00052017102 -8.71597e-05 0.13408743 -0.056556277
184666666666.67 0.025057405 -0.32165676 -1.8739887 5.0464811 0.00050097576 -0.00012383916 0.13061143 -0.065330192
184733333333.33 0.0040400326 -0.32002506 -1.4320941 5.1522441 0.00049190829 -0.00016874801 0.12624344 -0.074060574
184800000000 -0.014431231 -0.31946373 -0.97809637 5.208199 0.00048394757 -0.0002150691 0.12157781 -0.082225993
184866666666.67 -0.041880973 -0.31500292 -0.52301931 5.2768793 0.00044357521 -0.00024969233 0.11572306 -0.091473944
184933333333.33 -0.062867515 -0.31267041 -0.074408799 5.2733412 0.00044893209 -0.00029484535 0.10915677 -0.098179445
185000000000 -0.081308194 -0.30871698 0.37901282 5.2102451 0.00040201697 -0.00035090474 0.10242905 -0.10572498
185066666666.67 -0.10720977 -0.30045792 0.85460687 5.1592188 0.00040059164 -0.00035680621 0.095180325 -0.11316665
185133333333.33 -0.12826671 -0.29209265 1.3265659 5.0285902 0.00037298497 -0.00038135756 0.086396426 -0.11959366
185200000000 -0.14726564 -0.28285807 1.7555881 4.8700299 0.00034297537 -0.00041625457 0.077836975 -0.12594292
185266666666.67 -0.16927971 -0.26951471 2.1526198 4.6904755 0.00031858537 -0.00044944446 0.067812234 -0.13157021
185333333333.33 -0.18615457 -0.2545175 2.5614314 4.4606686 0.00023030132 -0.00047921375 0.058469743 -0.13628995
185400000000 -0.20509528 -0.24116158 2.9393466 4.186028 0.00021908812 -0.00049039914 0.048079424 -0.14047484
185466666666.67 -0.22011597 -0.22519271 3.2628222 3.8618593 0.00019722091 -0.00052350498 0.037254672 -0.14342149
185533333333.33 -0.23604313 -0.20486125 3.5860102 3.4926798 0.00015141279 -0.00052696519 0.027170192 -0.14507017
185600000000 -0.24793805 -0.1847712 3.8250914 3.163187 0.00010813131 -0.00053891551 0.017119547 -0.14596649
185666666666.67 -0.26092646 -0.17103702 4.0435691 2.8172417 3.7907288e-05 -0.00054643134 0.0072970949 -0.14758819
185733333333.33 -0.27514368 -0.14888054 4.2685952 2.4224186 -5.6370627e-06 -0.00056831591 -0.0032987371 -0.14826185
185800000000 -0.28520632 -0.13075452 4.4258881 2.0515885 -2.8931987e-05 -0.00056694279 -0.012827277 -0.14817075
185866666666.67 -0.294664 -0.10404798 4.5407987 1.6484213 -8.5906155e-05 -0.00056169857 -0.024069255 -0.14721224
185933333333.33 -0.3029547 -0.079944953 4.6514387 1.2233174 -0.00014772615 -0.00056785566 -0.035273269 -0.14597411
186000000000 -0.3060022 -0.058152273 4.7465868 0.80543542 -0.00017926378 -0.00055228884 -0.046951462 -0.14249015
186066666666.67 -0.31069559 -0.035324618 4.7529764 0.34694886 -0.00024252398 -0.00050245819 -0.058487304 -0.13813882
186133333333.33 -0.31371179 -0.014615119 4.7205291 -0.058081269 -0.00025625288 -0.00050015881 -0.067085758 -0.13308552
186200000000 -0.31153575 0.0080007426 4.6422501 -0.44369873 -0.00029448225 -0.00048863847 -0.07521002 -0.12829351
186266666666.67 -0.30963045 0.03291031 4.5659761 -0.82150757 -0.00033066302 -0.00048288325 -0.084320322 -0.12332082
186333333333.33 -0.30785483 0.056981459 4.477386 -1.2266668 -0.00037339955 -0.00044693094 -0.093719125 -0.11804976
186400000000 -0.30636758 0.07605017 4.3293233 -1.6067626 -0.00041910517 -0.00040901618 -0.10323182 -0.11054078
186466666666.67 -0.30090925 0.10003416 4.139503 -1.9690742 -0.00041411637 -0.00036432486 -0.11208075 -0.10211806
186533333333.33 -0.29213086 0.118922 3.9296823 -2.3116903 -0.00047655069 -0.00031231323 -0.11918313 -0.094019011
186600000000 -0.28184521 0.14329676 3.701252 -2.6301329 -0.00049409666 -0.00030195035 -0.12671031 -0.085096963
186666666666.67 -0.26846167 0.16279089 3.4236908 -2.9401374 -0.00053793151 -0.00025084277 -0.13277854 -0.075829461
186733333333.33 -0.25567153 0.18237582 3.1320362 -3.227818 -0.00055250421 -0.00022086182 -0.13862908 -0.066039123
186800000000 -0.24302018 0.20177458 2.8079743 -3.487613 -0.00055186549 -0.00018287222 -0.14377563 -0.055810541
186866666666.67 -0.22791833 0.21660598 2.473423 -3.6940215 -0.00054714561 -0.00011431859 -0.14716332 -0.044077575
186933333333.33 -0.21130721 0.2342376 2.1393638 -3.8472409 -0.00057650683 -9.1879156e-05 -0.15022545 -0.034715176
187000000000 -0.19066364 0.24727783 1.7571629 -4.0129061 -0.00060211541 -4.5464927e-05 -0.15316817 -0.023664396
187066666666.67 -0.17460655 0.26145136 1.3766377 -4.1034155 -0.00058583374 -7.2599796e-06 -0.15523782 -0.011712886
187133333333.33 -0.15447277 0.27714863 0.99258888 -4.1918869 -0.00056859781 5.1751165e-05 -0.1553662 0.00025663525
187200000000 -0.13352001 0.29072106 0.6586315 -4.2260427 -0.00058689725 0.00010495528 -0.1553311 0.010961659
187266666666.67 -0.11364883 0.29842171 0.2980386 -4.2518754 -0.00055044191 0.00015250812 -0.15567219 0.02229831
187333333333.33 -0.086819574 0.30570489 -0.098601341 -4.2194424 -0.00055035308 0.00018940515 -0.15375854 0.034165911
187400000000 -0.068882614 0.31217122 -0.45905674 -4.164444 -0.00053065561 0.00022544131 -0.15191074 0.045040742
187466666666.67 -0.04363412 0.31821078 -0.83164179 -4.0847611 -0.00051693554 0.0002723576 -0.14818712 0.056622919
187533333333.33 -0.018206771 0.32071981 -1.1813468 -3.9754682 -0.00048534357 0.00029516735 -0.14424983 0.067549489
187600000000 0.0013982505 0.32062334 -1.5382694 -3.8097155 -0.00047153662 0.00034882408 -0.13896388 0.078123011
187666666666.67 0.029203728 0.32200134 -1.8667812 -3.6396332 -0.00043211418 0.00036195669 -0.13294151 0.089064546
187733333333.33 0.056532413 0.32021874 -2.1565905 -3.4257686 -0.00040084406 0.00040835887 -0.12703373 0.098019756
187800000000 0.076341279 0.31788558 -2.4170756 -3.2041557 -0.0003728678 0.0004420084 -0.11985055 0.10820864
187866666666.67 0.097358286 0.30991998 -2.6756959 -2.9681988 -0.00035253627 0.00047061933 -0.11174138 0.11733402
187933333333.33 0.12119132 0.30454081 -2.8886204 -2.6826279 -0.00030004344 0.0005069772 -0.10270102 0.12572789
188000000000 0.13968247 0.2947824 -3.076858 -2.422946 -0.00027327763 0.00050273078 -0.094057508 0.1335241
188066666666.67 0.16410655 0.28570709 -3.2466247 -2.1177108 -0.00022897621 0.00051386526 -0.083788455 0.14033939
188133333333.33 0.1852178 0.27325144 -3.4149296 -1.7979695 -0.00015501583 0.00055456144 -0.073528126 0.14730985
188200000000 0.2033633 0.26006585 -3.538733 -1.4575583 -0.00012610859 0.00054987258 -0.062553398 0.15335904
188266666666.67 0.22327226 0.2451244 -3.6264062 -1.1363738 -9.7836717e-05 0.0005754669 -0.050946631 0.15867905
188333333333.33 0.24250931 0.22856906 -3.690361 -0.80420995 -3.848187e-05 0.00057593914 -0.038769275 0.16302496
188400000000 0.2556715 0.21138096 -3.7121909 -0.5073086 -3.3367542e-07 0.00059370685 -0.027407803 0.16600674
188466666666.67 0.27395305 0.19610412 -3.7186587 -0.15704885 4.0091451e-05 0.00058082846 -0.014369776 0.16801591
188533333333.33 0.28481326 0.17250359 -3.6891036 0.16895735 9.9850149e-05 0.00056435133 -0.0022907481 0.17011593
188600000000 0.2985014 0.15370339 -3.6287589 0.47814572 0.00013928897 0.00056203321 0.0096587949 0.17050415
188666666666.67 0.30715847 0.13212109 -3.5222383 0.78676426 0.00017052445 0.00053548446 0.022325985 0.16999964
188733333333.33 0.31908941 0.10606737 -3.438458 1.0934091 0.00021587612 0.00053330453 0.034764104 0.1688706
188800000000 0.32404643 0.086286508 -3.2837963 1.3944861 0.00025589531 0.00051835616 0.04779416 0.16660562
188866666666.67 0.33175966 0.062214002 -3.1220651 1.6747376 0.00030706436 0.00049325707 0.060731627 0.16293073
188933333333.33 0.33300725 0.036828876 -2.9265137 1.899157 0.0003340205 0.00044659531 0.071151115 0.15842189
189000000000 0.34128433 0.012674168 -2.7436841 2.1278124 0.00036404599 0.00043212267 0.083384208 0.15379816
189066666666.67 0.33892682 -0.01129055 -2.514982 2.3533187 0.00038058474 0.0003872797 0.09516795 0.14784758
189133333333.33 0.33871683 -0.036999721 -2.2903726 2.5177112 0.00042939346 0.00037755381 0.10545378 0.14149582
189200000000 0.3345021 -0.063051626 -2.0428061 2.6610949 0.000447967 0.0003333411 0.11613832 0.13452245
189266666666.67 0.33119208 -0.08708892 -1.7787778 2.8375788 0.00046150805 0.00032628296 0.12691921 0.12546147
189333333333.33 0.32240626 -0.10967209 -1.514704 2.9461286 0.0004930984 0.00028675163 0.13667814 0.11652084
189400000000 0.313535 -0.12907305 -1.2397974 3.030055 0.0005157619 0.00022869662 0.14580122 0.10706124
189466666666.67 0.30787355 -0.15487194 -0.96902311 3.0960515 0.00051408401 0.00019117398 0.15380386 0.096812502
189533333333.33 0.29696351 -0.17613396 -0.67448354 3.1406512 0.00052420987 0.00016266567 0.16160162 0.085305199
189600000000 0.28131706 -0.19678256 -0.39204252 3.1489019 0.00054285279 0.00011011347 0.16783734 0.074687511
189666666666.67 0.27034324 -0.22083029 -0.12047619 3.1272478 0.00056663988 6.8452195e-05 0.17323035 0.062195301
189733333333.33 0.25378975 -0.23947959 0.15798688 3.1018476 0.000558789 3.2408178e-05 0.17827159 0.050231304
189800000000 0.23919518 -0.25792581 0.42076099 3.0399985 0.00054204703 -2.1875108e-05 0.18240467 0.037296548
189866666666.67 0.21889299 -0.27185878 0.67193151 2.9617994 0.00055014016 -4.7225778e-05 0.18534219 0.024182424
189933333333.33 0.19972497 -0.2850033 0.9092598 2.8638682 0.00052439753 -8.3077233e-05 0.1874367 0.010316417
190000000000 0.17905198 -0.29905286 1.1356342 2.7187214 0.00052805181 -0.00012919131 0.18869112 -0.0026813224
190066666666.67 0.15683123 -0.31170189 1.3399792 2.5878861 0.00049876358 -0.00017449676 0.18920206 -0.016640563
190133333333.33 0.13675109 -0.32427135 1.5402147 2.4388924 0.00048385974 -0.00020937064 0.18800114 -0.03040174
190200000000 0.11672237 -0.33066916 1.7137039 2.2800698 0.00049209944 -0.00023538372 0.18709616 -0.044908762
190266666666.67 0.092722639 -0.34075189 1.8915766 2.0965831 0.00044841244 -0.00028799867 0.18401074 -0.058755435
190333333333.33 0.064756244 -0.34525749 2.0283856 1.8963797 0.00042548345 -0.00031296501 0.18023756 -0.072432943
190400000000 0.04028295 -0.34884235 2.1573405 1.6978796 0.00040426827 -0.00034734997 0.17572677 -0.086247347
190466666666.67 0.014651537 -0.35186267 2.2530558 1.482495 0.00038010709 -0.00037614701 0.17022276 -0.099167533
190533333333.33 -0.0082840417 -0.34723181 2.3419502 1.2855654 0.00035493501 -0.00040235723 0.16357896 -0.11200938
190600000000 -0.033065304 -0.34791985 2.401706 1.0655746 0.00033016282 -0.0004040518 0.15628979 -0.12415604
190666666666.67 -0.061336868 -0.3455466 2.4504728 0.84469837 0.00030203362 -0.00044603122 0.14747138 -0.13636491
190733333333.33 -0.08172781 -0.33900827 2.4652967 0.64656258 0.00025488186 -0.00046119641 0.13858929 -0.14741856
190800000000 -0.1077743 -0.33532569 2.4798889 0.44803166 0.00024960746 -0.00047082189 0.12822038 -0.15787683
190866666666.67 -0.12952667 -0.32387099 2.4714351 0.24203783 0.00020055257 -0.00050693395 0.11719298 -0.1674246
190933333333.33 -0.15567833 -0.31528234 2.4524469 0.05163002 0.00015776888 -0.0005076669 0.10511708 -0.17680506
191000000000 -0.17821921 -0.30203265 2.4137945 -0.13828003 0.00011902241 -0.00049868942 0.093215823 -0.18477009
191066666666.67 -0.19891626 -0.29146215 2.372741 -0.30813587 7.4435637e-05 -0.00050906057 0.080667049 -0.19097787
191133333333.33 -0.22110017 -0.27623028 2.3181581 -0.48479509 7.0484464e-05 -0.00052433572 0.067689016 -0.19702597
191200000000 -0.24006407 -0.26022902 2.2581396 -0.65422076 -1.7830171e-06 -0.00052204455 0.053099938 -0.20254725
191266666666.67 -0.25745717 -0.24457096 2.1928821 -0.82161975 -2.564086e-05 -0.00052138208 0.038591877 -0.20747182
191333333333.33 -0.27689007 -0.22429678 2.1190994 -0.96716946 -7.5747826e-05 -0.00050662516 0.024185419 -0.21106291
191400000000 -0.29325405 -0.20899132 2.0237837 -1.12304 -0.00011468152 -0.00049897167 0.0089799836 -0.21322528
191466666666.67 -0.3056168 -0.18621215 1.9238125 -1.2803818 -0.00014047659 -0.00049746438 -0.007071225 -0.2145206
191533333333.33 -0.31792772 -0.16444384 1.8118587 -1.4295089 -0.00016285741 -0.00048677105 -0.021511316 -0.21489461
191600000000 -0.32922864 -0.14104608 1.6947691 -1.5612037 -0.00022314583 -0.00045953173 -0.037871636 -0.21388043
191666666666.67 -0.33711854 -0.1173228 1.5574064 -1.6934178 -0.0002431325 -0.00045747141 -0.052662019 -0.21077594
191733333333.33 -0.34514436 -0.09070757 1.4036512 -1.8152564 -0.00026116226 -0.00044344005 -0.068140306 -0.20819557
191800000000 -0.35290188 -0.067521244 1.2361968 -1.9235508 -0.00028817679 -0.00040850445 -0.08239124 -0.203042
191866666666.67 -0.35335371 -0.04281725 1.0610294 -2.0111148 -0.00034638471 -0.00038970329 -0.097193897 -0.19800836
191933333333.33 -0.35436353 -0.017359063 0.89335531 -2.0900037 -0.00035497756 -0.00035929703 -0.11084671 -0.19219473
192000000000 -0.35542703 0.0095871389 0.69107401 -2.1430202 -0.00038181047 -0.00034072407 -0.12438893 -0.18395904
192066666666.67 -0.35545039 0.035646416 0.50393069 -2.1869242 -0.00039942836 -0.00030350589 -0.13821277 -0.17545736
192133333333.33 -0.35226044 0.061566077 0.31910059 -2.2107155 -0.00042318137 -0.0002741529 -0.15061094 -0.16701129
192200000000 -0.34701267 0.089124069 0.1317445 -2.2173169 -0.00044343056 -0.00024303647 -0.16219965 -0.15631157
192266666666.67 -0.34307897 0.1129199 -0.06817466 -2.2087107 -0.0004795735 -0.00022255971 -0.17382905 -0.14539748
192333333333.33 -0.33130974 0.13749298 -0.27451098 -2.1786959 -0.00048855488 -0.00018132827 -0.18471792 -0.13327016
192400000000 -0.31640723 0.1608451 -0.45543295 -2.1353621 -0.0005004917 -0.00014123911 -0.19340216 -0.12055086
192466666666.67 -0.30555269 0.18095666 -0.63357729 -2.0643256 -0.00049706042 -0.000105716 -0.2021479 -0.10701539
192533333333.33 -0.2956731 0.20443603 -0.79816687 -1.9898543 -0.00049431232 -7.3021729e-05 -0.2097289 -0.093172982
192600000000 -0.27595139 0.23007278 -0.9808501 -1.90938 -0.00049889839 -5.3434705e-05 -0.21735212 -0.078889944
192666666666.67 -0.25999987 0.24757825 -1.1338261 -1.7795817 -0.0005019891 8.2019687e-07 -0.22253832 -0.06339363
192733333333.33 -0.24130854 0.26385191 -1.2711496 -1.6624488 -0.00050242245 2.9487477e-05 -0.22690794 -0.048635364
192800000000 -0.21969947 0.27836254 -1.3907201 -1.5333873 -0.00049983989 6.8709953e-05 -0.23086071 -0.033393763
192866666666.67 -0.20358962 0.29482892 -1.494378 -1.4186119 -0.00050825317 0.00010235654 -0.23423441 -0.018093571
192933333333.33 -0.18645585 0.30879104 -1.5834554 -1.2706506 -0.00048132768 0.00012128234 -0.23513454 -0.0024781227
193000000000 -0.16384602 0.31994167 -1.6961863 -1.1275858 -0.00046183169 0.00018404711 -0.23709011 0.014351955
193066666666.67 -0.13731559 0.33475393 -1.7761006 -0.94861758 -0.00043772804 0.00020248408 -0.23476523 0.032034889
193133333333.33 -0.11394995 0.34531304 -1.832947 -0.79175436 -0.00044470027 0.00025016716 -0.23337239 0.047989722
193200000000 -0.093930945 0.35101312 -1.8661431 -0.62534696 -0.00042526709 0.00027236604 -0.23046201 0.063486427
193266666666.67 -0.064465299 0.35742265 -1.8950529 -0.45279014 -0.00041922228 0.00031174044 -0.22629955 0.0788574
193333333333.33 -0.037962615 0.36117691 -1.9140497 -0.28875226 -0.00039319947 0.00031639464 -0.22099876 0.09437196
193400000000 -0.01587807 0.36423719 -1.9126893 -0.11957527 -0.00035826655 0.00033500668 -0.21505192 0.10974343
193466666666.67 0.011971936 0.36225736 -1.8984908 0.04100877 -0.00032536971 0.00037334714 -0.20746347 0.1247876
193533333333.33 0.039251342 0.35767376 -1.8630648 0.20339149 -0.00029189515 0.00039637709 -0.19954699 0.13853623
193600000000 0.063053407 0.35711017 -1.820974 0.34827521 -0.00027162462 0.00040751349 -0.19044636 0.15095304
193666666666.67 0.087909661 0.35259473 -1.7746714 0.50390202 -0.0002469969 0.00042297147 -0.18008171 0.16518062
193733333333.33 0.11271296 0.34643328 -1.7103558 0.63781238 -0.00020791692 0.00045819755 -0.16974026 0.17628559
193800000000 0.13753319 0.33997211 -1.6363444 0.78635079 -0.00017162242 0.00045076711 -0.15748727 0.18935642
193866666666.67 0.16073348 0.32593364 -1.5480335 0.89472967 -0.00014268607 0.00045602635 -0.14522463 0.19976099
193933333333.33 0.18682902 0.31195292 -1.4475319 1.0176172 -0.00010931476 0.00045812398 -0.13199639 0.20943899
194000000000 0.20768343 0.30036506 -1.3492717 1.135969 -5.9460377e-05 0.00048223865 -0.11808976 0.21952207
194066666666.67 0.22410727 0.28242955 -1.2338133 1.2234604 -4.5711829e-05 0.00049297715 -0.10355887 0.22734395
194133333333.33 0.24633372 0.26696461 -1.1142454 1.3092397 -1.5251135e-05 0.00047128199 -0.087791435 0.23384362
194200000000 0.26448691 0.24867211 -0.99172795 1.3915464 4.3407876e-05 0.00047659726 -0.071605057 0.24081774
194266666666.67 0.27950701 0.22759682 -0.86278176 1.4416394 5.5556542e-05 0.00047408737 -0.055219911 0.24527943
194333333333.33 0.2953746 0.20940611 -0.72111011 1.5078512 0.00010375895 0.0004652979 -0.03774403 0.25013936
194400000000 0.30939293 0.18763751 -0.59267664 1.5431306 0.00011195712 0.00047350474 -0.020933442 0.25245988
194466666666.67 0.31971273 0.1635565 -0.46426046 1.5818551 0.00017034031 0.00045339117 -0.0049697123 0.25512007
194533333333.33 0.34291399 0.13961387 -0.32079256 1.5973176 0.00019525805 0.00042241655 0.013252541 0.25390917
194600000000 0.34446248 0.1158186 -0.18866265 1.5902088 0.00022501881 0.00043076329 0.029830575 0.25275093
194666666666.67 0.35385293 0.088267714 -0.054632887 1.5924535 0.00025251711 0.00040146464 0.046913281 0.25106752
194733333333.33 0.35653663 0.064374201 0.086522102 1.5697286 0.0002742892 0.00036969953 0.063906178 0.24842751
194800000000 0.36243778 0.038616061 0.21189368 1.5364189 0.00031681301 0.00035711555 0.080885753 0.2437323
194866666666.67 0.35935616 0.013081059 0.33911723 1.492285 0.00031128054 0.00033750615 0.09739539 0.23888783
194933333333.33 0.35898682 -0.015494362 0.46845666 1.4426843 0.00035325292 0.00031409197 0.11491136 0.23243785
195000000000 0.35836378 -0.038500309 0.57893717 1.3869982 0.00036936326 0.00028596868 0.13055038 0.22482488
195066666666.67 0.35300022 -0.064984597 0.68047249 1.3320365 0.00038375269 0.00024658995 0.14507963 0.21668772
195133333333.33 0.3506442 -0.087184161 0.77765226 1.2546856 0.00039764584 0.00022159835 0.15946484 0.20543157
195200000000 0.34140763 -0.11473489 0.86782217 1.1824452 0.00040580469 0.00019420775 0.17402004 0.19661698
195266666666.67 0.33084881 -0.13299513 0.96196175 1.0961573 0.00040920917 0.00017020738 0.18928963 0.18327738
195333333333.33 0.31748712 -0.16153741 1.0392207 1.0028588 0.00043114013 0.00015023371 0.20069928 0.17137977
195400000000 0.30771023 -0.1831598 1.0966932 0.90475255 0.00041331889 0.00011688299 0.21181133 0.15866932
195466666666.67 0.29349434 -0.20413926 1.1602129 0.79366213 0.00044928177 7.1329821e-05 0.2231812 0.14270073
195533333333.33 0.27157539 -0.22362931 1.2097461 0.69591838 0.00043784524 5.6906705e-05 0.23271404 0.12867439
195600000000 0.25920895 -0.24161354 1.2470257 0.57794195 0.00044035621 6.0672755e-06 0.24059552 0.11329141
195666666666.67 0.23807146 -0.25597361 1.273181 0.45852238 0.00045450934 -2.0981413e-05 0.24803145 0.095234305
195733333333.33 0.21872875 -0.27234173 1.2976462 0.35263085 0.0004449306 -4.7893103e-05 0.25588593 0.079134554
195800000000 0.19688496 -0.29004452 1.3105031 0.24064791 0.00042460149 -8.0529047e-05 0.26111701 0.060167469
195866666666.67 0.17611085 -0.30313939 1.30246 0.13550767 0.00042699324 -0.0001256486 0.26570058 0.043231703
195933333333.33 0.14941704 -0.31333488 1.2993315 0.025202662 0.00040608057 -0.00014563667 0.26891321 0.025493439
196000000000 0.12731332 -0.32262707 1.2826452 -0.078118563 0.00041085645 -0.00016523313 0.27044082 0.0072695017
196066666666.67 0.10449906 -0.33496407 1.2595417 -0.17500618 0.00037728494 -0.00019279352 0.27110332 -0.01014559
196133333333.33 0.077989034 -0.33690572 1.2247458 -0.2811394 0.00037252574 -0.00023156799 0.26989082 -0.030220211
196200000000 0.054605104 -0.34270871 1.1818217 -0.37226528 0.00035204436 -0.00022854947 0.26711643 -0.047009856
196266666666.67 0.030434638 -0.34706253 1.1444342 -0.46709394 0.00033531513 -0.00026669499 0.26420277 -0.065213688
196333333333.33 0.0052962312 -0.34431234 1.08562 -0.54818487 0.00031621239 -0.00029595877 0.25989366 -0.081653796
196400000000 -0.019675314 -0.34565425 1.0240217 -0.62919879 0.00029061141 -0.00030408907 0.25412184 -0.098707274
196466666666.67 -0.046692774 -0.34349287 0.96680135 -0.70845699 0.00027398873 -0.00031653314 0.24875137 -0.11713617
196533333333.33 -0.070596941 -0.33673754 0.88618886 -0.77416599 0.00025420351 -0.00033175532 0.24027386 -0.13311253
196600000000 -0.093280718 -0.33019817 0.80637175 -0.83605945 0.00022207547 -0.00035849295 0.23006813 -0.14919753
196666666666.67 -0.11587597 -0.31909671 0.7322486 -0.88641614 0.00019268131 -0.00037317871 0.22016507 -0.16428506
196733333333.33 -0.13765405 -0.30971658 0.6500864 -0.93789387 0.00015422673 -0.00040246663 0.20953842 -0.18054971
196800000000 -0.16049364 -0.29827097 0.56620222 -0.97988284 0.00013412535 -0.00039699726 0.19664206 -0.19396053
196866666666.67 -0.18397424 -0.28540516 0.47676605 -1.0065987 0.00012812033 -0.00039873584 0.18419325 -0.2065803
196933333333.33 -0.2023862 -0.26858458 0.39145291 -1.0266589 8.865702e-05 -0.00039713364 0.17021669 -0.21789515
197000000000 -0.22135791 -0.25438172 0.30151182 -1.0472541 6.6498324e-05 -0.0004184604 0.15479079 -0.22890513
197066666666.67 -0.23675483 -0.23760766 0.21710107 -1.0539706 4.3644817e-05 -0.00040170198 0.13958178 -0.23980594
197133333333.33 -0.2542682 -0.21969429 0.12683076 -1.061254 -1.6429785e-06 -0.00039670873 0.1241862 -0.24887933
197200000000 -0.26682186 -0.19790608 0.037404001 -1.0493196 -1.7469109e-05 -0.00039311603 0.10625631 -0.25634077
197266666666.67 -0.28131732 -0.17787935 -0.045280427 -1.0413905 -4.9992464e-05 -0.00039552484 0.090522259 -0.26278591
197333333333.33 -0.29236662 -0.15319732 -0.13060737 -1.0230124 -8.9327921e-05 -0.00039983596 0.069799669 -0.26915854
197400000000 -0.30286857 -0.1316278 -0.21432586 -1.0009757 -0.00010992764 -0.00039010661 0.052042104 -0.27343383
197466666666.67 -0.31204483 -0.10766654 -0.2873604 -0.96728396 -0.00011569946 -0.00036281275 0.035007112 -0.27651355
197533333333.33 -0.31799513 -0.084026359 -0.36488497 -0.92753744 -0.00012865335 -0.00037164747 0.015442654 -0.27735457
197600000000 -0.32068503 -0.056928426 -0.43550944 -0.88224161 -0.00018236914 -0.00035139697 -0.0026049092 -0.27820334
197666666666.67 -0.32490525 -0.03339038 -0.50151891 -0.84137022 -0.00019797486 -0.00035297367 -0.021467105 -0.27872393
197733333333.33 -0.32587108 -0.0080247223 -0.56416267 -0.78653228 -0.00021310657 -0.00032276491 -0.040093541 -0.27648884
197800000000 -0.32675764 0.016503245 -0.61972296 -0.72531289 -0.00023128009 -0.00031473752 -0.058670491 -0.27382764
197866666666.67 -0.32195908 0.042487219 -0.66693079 -0.66280484 -0.00024865381 -0.00031010353 -0.076798961 -0.26866347
197933333333.33 -0.31949419 0.065281294 -0.70670408 -0.60130227 -0.00026668573 -0.00028225229 -0.094272785 -0.26270187
198000000000 -0.31106436 0.091281533 -0.74686658 -0.5372147 -0.00028547956 -0.00026974888 -0.11203143 -0.25559646
198066666666.67 -0.3035222 0.11303 -0.7790103 -0.46648487 -0.00030740406 -0.00025574767 -0.12862244 -0.24739198
198133333333.33 -0.29661199 0.13455808 -0.80649441 -0.39925697 -0.00033340827 -0.00021648328 -0.14435376 -0.23751949
198200000000 -0.28405055 0.15614115 -0.82527566 -0.3253603 -0.00033087813 -0.00020053769 -0.15908542 -0.22711338
198266666666.67 -0.27069113 0.17689711 -0.84021413 -0.25391781 -0.00033957703 -0.00018789641 -0.17362346 -0.2159005
198333333333.33 -0.25754297 0.19930774 -0.84911764 -0.18421638 -0.0003502139 -0.00016279673 -0.18815316 -0.20319507
198400000000 -0.2437492 0.21630275 -0.85143799 -0.11203784 -0.00036199021 -0.00014444964 -0.20153353 -0.18984562
198466666666.67 -0.2268796 0.23119277 -0.84828836 -0.04456979 -0.00037193537 -0.00011273303 -0.21308346 -0.17573102
198533333333.33 -0.20682535 0.24730203 -0.83499897 0.028866768 -0.00037962323 -8.1392296e-05 -0.22394595 -0.16056783
198600000000 -0.18702219 0.26501548 -0.81934661 0.089707732 -0.00039601309 -6.7360146e-05 -0.23346262 -0.14379495
198666666666.67 -0.166841 0.27557674 -0.80476934 0.15401909 -0.00037654067 -3.8878963e-05 -0.24166396 -0.12926817
198733333333.33 -0.14483163 0.28907591 -0.78217876 0.21285227 -0.0003816128 -1.9543484e-05 -0.24944197 -0.11266761
198800000000 -0.12451327 0.29738101 -0.75176543 0.27637655 -0.00037662397 6.964583e-06 -0.25645238 -0.095529199
198866666666.67 -0.10111968 0.30707157 -0.71735549 0.33101583 -0.00038182165 3.3399192e-05 -0.26218018 -0.077538535
198933333333.33 -0.077275753 0.31227106 -0.68136519 0.38156456 -0.00037820905 5.183863e-05 -0.26626992 -0.059549786
199000000000 -0.050611626 0.3153958 -0.64152408 0.42973471 -0.00038732935 8.1513106e-05 -0.26922727 -0.041978493
199066666666.67 -0.026930213 0.32157499 -0.59766459 0.47540903 -0.0003741695 0.00011138628 -0.27077976 -0.021935634
199133333333.33 -0.0011774749 0.32083115 -0.55041349 0.51635677 -0.00035702361 0.00014170105 -0.27135 -0.0044062287
199200000000 0.023609966 0.32012054 -0.50267661 0.55168277 -0.00034111564 0.00017593685 -0.27082112 0.014447685
199266666666.67 0.045200735 0.31843209 -0.45210725 0.5816195 -0.0003215649 0.0001741767 -0.26831755 0.032591075
199333333333.33 0.068781413 0.316796 -0.39811227 0.60603881 -0.00030738284 0.00021958345 -0.26442277 0.051604889
199400000000 0.096474871 0.30877453 -0.3470701 0.63132501 -0.00028746971 0.0002179555 -0.25985205 0.068667218
199466666666.67 0.12207718 0.2984302 -0.28779504 0.6499362 -0.00028631886 0.00023488833 -0.25378856 0.086475298
199533333333.33 0.14553721 0.29062861 -0.23666729 0.6605798 -0.00026166221 0.00026679231 -0.24593094 0.10325211
199600000000 0.1648688 0.2790651 -0.18072559 0.6691438 -0.00025066774 0.00026139343 -0.23738104 0.1205764
199666666666.67 0.18543118 0.27039638 -0.12660149 0.6744737 -0.00023589529 0.00029196951 -0.22785684 0.13629629
199733333333.33 0.2077888 0.2554186 -0.070862323 0.67700607 -0.00021883872 0.00030287486 -0.21738777 0.15192968
199800000000 0.2321853 0.23393628 -0.017684579 0.67000961 -0.00019885064 0.000314776 -0.20559879 0.16590929
199866666666.67 0.24788564 0.21841562 0.0331489 0.6620459 -0.00017385019 0.00032461726 -0.19205038 0.17986259
199933333333.33 0.26223198 0.19943611 0.09165258 0.65514171 -0.00014970492 0.00033400004 -0.17992097 0.19331861
200000000000 0.27644151 0.1833379 0.1403878 0.63344491 -0.00012180884 0.00035207614 -0.16291198 0.20610023
200066666666.67 0.28965241 0.16178855 0.18630762 0.6149931 -9.9654964e-05 0.00035125544 -0.14736897 0.21662199
200133333333.33 0.30041543 0.13668022 0.23234361 0.58639878 -7.8899699e-05 0.00036654423 -0.13191381 0.22479738
200200000000 0.31357092 0.11355311 0.27340984 0.56286687 -6.2250168e-05 0.00036508709 -0.11430897 0.23333991
200266666666.67 0.32497555 0.086843155 0.31375688 0.53125244 -3.3259021e-05 0.00035290947 -0.096674807 0.23994461
200333333333.33 0.32932344 0.061680678 0.3484771 0.49875927 -6.8587542e-07 0.0003704656 -0.079563007 0.24606976
200400000000 0.33596432 0.039231852 0.37781325 0.46352795 2.340223e-05 0.00036379587 -0.060522512 0.2498596
200466666666.67 0.33623013 0.016020931 0.40690026 0.43330842 2.8455968e-05 0.00037900428 -0.042342857 0.25383013
200533333333.33 0.34382486 -0.012816794 0.4351593 0.39894065 5.7444548e-05 0.00032647408 -0.024250709 0.25465971
200600000000 0.34291363 -0.04115279 0.45901632 0.35868573 6.8473644e-05 0.00034688297 -0.0058469847 0.25605512
200666666666.67 0.33602902 -0.067348652 0.48113364 0.3112337 0.00010540606 0.00032073385 0.012757443 0.25530905
200733333333.33 0.33269709 -0.093289211 0.49532756 0.27300489 0.00013752597 0.00035285912 0.032160904 0.25308907
200800000000 0.32422543 -0.12123571 0.50895029 0.22936119 0.00013169553 0.00032825494 0.050920308 0.24984699
200866666666.67 0.31460443 -0.14929444 0.51617616 0.18705332 0.00017698082 0.00032099106 0.069449663 0.24526921
200933333333.33 0.30786899 -0.17006037 0.52210206 0.14675447 0.00020297004 0.00031524204 0.087812275 0.23800178
201000000000 0.29426986 -0.19600764 0.52410251 0.10755892 0.00022291607 0.00029716425 0.10467291 0.23077002
201066666666.67 0.2758916 -0.21768403 0.52537334 0.068618804 0.00022459132 0.00025845953 0.12227245 0.22164787
201133333333.33 0.26002383 -0.24446586 0.52300519 0.028639868 0.0002493856 0.00025755962 0.13770419 0.21198165
201200000000 0.24351755 -0.26170737 0.52027261 -0.008717224 0.00024893117 0.00023428068 0.15369983 0.20184875
201266666666.67 0.2262494 -0.28287008 0.51321822 -0.04705359 0.00027577564 0.00021060552 0.16791874 0.18919362
201333333333.33 0.19832876 -0.3007288 0.50501388 -0.081233338 0.00028181763 0.00021415722 0.18281227 0.17748001
201400000000 0.17555957 -0.31423205 0.49041846 -0.11644177 0.00028617846 0.0001741172 0.19673699 0.16166744
201466666666.67 0.15263018 -0.32512254 0.48109424 -0.15077507 0.00029973494 0.00017239811 0.20925802 0.14611378
201533333333.33 0.12476673 -0.34198555 0.46076325 -0.1872814 0.00033734657 0.00013943791 0.21939296 0.13052076
201600000000 0.10060151 -0.34600028 0.44261205 -0.21776508 0.00031968812 0.0001230254 0.22886938 0.11365816
201666666666.67 0.069425076 -0.35505608 0.42127138 -0.25224152 0.00032897314 0.00011471222 0.23779437 0.095232897
201733333333.33 0.049238712 -0.3593272 0.40275905 -0.27980682 0.00032850233 9.0970658e-05 0.24382734 0.077516466
201800000000 0.021756232 -0.36357281 0.37548199 -0.30845803 0.00033106169 6.5540087e-05 0.2499119 0.058831774
201866666666.67 -0.0098797977 -0.36490643 0.34640652 -0.33474576 0.00034027285 5.6658573e-05 0.25401241 0.038991168
201933333333.33 -0.033447593 -0.36340213 0.32056326 -0.35887313 0.00032414452 3.7696562e-05 0.25760645 0.02011469
202000000000 -0.060165226 -0.35863334 0.28474632 -0.37960213 0.0003455953 1.0301301e-06 0.2592639 0.0040171146
202066666666.67 -0.083208039 -0.35721737 0.25265256 -0.39984557 0.00034322171 -7.4644049e-06 0.25989234 -0.017180316
202133333333.33 -0.11151064 -0.34910819 0.21526179 -0.41706288 0.00034051336 -2.7913018e-05 0.25850478 -0.036620766
202200000000 -0.13839158 -0.33813301 0.17857739 -0.42728388 0.00034047596 -4.665109e-05 0.25650406 -0.056534905
202266666666.67 -0.15959442 -0.33152905 0.14550459 -0.43481216 0.00034528555 -5.3194934e-05 0.25357306 -0.076134831
202333333333.33 -0.18353003 -0.31697553 0.10797985 -0.44366395 0.00033558146 -9.8533652e-05 0.2488865 -0.095112801
202400000000 -0.20529054 -0.30330274 0.077037223 -0.44592816 0.00033022583 -9.8135497e-05 0.24278876 -0.11503565
202466666666.67 -0.22823569 -0.28880718 0.037617035 -0.44684136 0.0003147535 -0.0001276769 0.23557323 -0.13375314
202533333333.33 -0.24688229 -0.26967898 0.0013403445 -0.44063604 0.00031201527 -0.00017269312 0.22526933 -0.15091795
202600000000 -0.26509506 -0.25702965 -0.032768466 -0.43722644 0.00031305882 -0.00017524391 0.21733387 -0.16846225
202666666666.67 -0.28348845 -0.2330603 -0.070013285 -0.42649972 0.00029701373 -0.00019980667 0.20504302 -0.18504065
202733333333.33 -0.29998744 -0.21688092 -0.10392453 -0.41469118 0.00029118056 -0.0002271581 0.19036421 -0.20249334
202800000000 -0.31612894 -0.1940708 -0.13381331 -0.40023789 0.00026467937 -0.00024506569 0.17308488 -0.21969892
202866666666.67 -0.33067539 -0.17328538 -0.16266845 -0.38502198 0.00025583737 -0.00024773466 0.15867779 -0.23292825
202933333333.33 -0.34066215 -0.15140074 -0.18974024 -0.36625552 0.00024248906 -0.00027841731 0.14239791 -0.24649695
203000000000 -0.35391784 -0.12557015 -0.21799316 -0.34579855 0.00023863744 -0.0002664169 0.12588233 -0.25701857
203066666666.67 -0.36057162 -0.10255084 -0.23947191 -0.32215714 0.00021666713 -0.00029137902 0.11029363 -0.26589033
203133333333.33 -0.36795539 -0.077964626 -0.26209483 -0.29758337 0.00018543708 -0.00030971714 0.089111798 -0.27596638
203200000000 -0.37528506 -0.053743251 -0.28213876 -0.27446455 0.00017220834 -0.00030847098 0.069447935 -0.28421998
203266666666.67 -0.37845767 -0.029415533 -0.29853788 -0.25013173 0.00014145876 -0.00033010077 0.048023716 -0.29075825
203333333333.33 -0.38207904 -0.0036318898 -0.31305578 -0.21932176 0.00013027353 -0.00035176182 0.026085742 -0.29536062
203400000000 -0.38449979 0.02082251 -0.32329232 -0.19420239 0.00011269651 -0.00035611607 0.0063723326 -0.298913
203466666666.67 -0.38125286 0.047635376 -0.3345409 -0.16506241 9.2058996e-05 -0.00035782566 -0.014327481 -0.3013736
203533333333.33 -0.37535065 0.07265649 -0.34054205 -0.13757467 8.1711405e-05 -0.00037443376 -0.037968561 -0.30135798
203600000000 -0.37131441 0.098355949 -0.34649345 -0.1084992 5.4085249e-05 -0.00038141722 -0.05878371 -0.30107665
203666666666.67 -0.36555329 0.12377606 -0.34850228 -0.080172002 2.8698225e-05 -0.00036835606 -0.077655844 -0.29780883
203733333333.33 -0.35747877 0.14738339 -0.3491919 -0.052310511 4.1189924e-06 -0.00036824757 -0.098422155 -0.29486606
203800000000 -0.34932718 0.1701206 -0.34792581 -0.027165553 -7.4013733e-06 -0.00036662494 -0.12169643 -0.29016858
203866666666.67 -0.33588788 0.19312127 -0.34739438 -0.0014733374 -6.8336718e-05 -0.00036555398 -0.14432213 -0.28348058
203933333333.33 -0.32608306 0.21778722 -0.33995563 0.024381846 -6.644438e-05 -0.00037142361 -0.16505027 -0.27594632
204000000000 -0.30955243 0.24048319 -0.33491051 0.049157735 -0.00010920447 -0.00038275647 -0.18672258 -0.26392126
204066666666.67 -0.29404259 0.25680512 -0.32764885 0.071152523 -0.00013201074 -0.00035050168 -0.20736033 -0.25232995
204133333333.33 -0.27741021 0.27656841 -0.31724539 0.095179126 -0.00015867947 -0.00035250629 -0.22685635 -0.23738839
204200000000 -0.2566196 0.29700029 -0.30578807 0.11793628 -0.00019131551 -0.00035642087 -0.24500179 -0.2206787
204266666666.67 -0.23409797 0.31576023 -0.29290938 0.13978016 -0.00018715319 -0.00033952881 -0.25992516 -0.20492463
204333333333.33 -0.21539795 0.32647455 -0.2782681 0.16254368 -0.0002209379 -0.00031640945 -0.27536038 -0.18719594
204400000000 -0.19394679 0.33782583 -0.26353467 0.18065107 -0.00022937602 -0.00030076929 -0.28849587 -0.16962913
204466666666.67 -0.1697078 0.35482752 -0.2459403 0.20065729 -0.00024820043 -0.00029422747 -0.30102184 -0.14777909
204533333333.33 -0.15030208 0.36673287 -0.22774231 0.21406794 -0.00026924605 -0.00026987249 -0.31122077 -0.12802647
204600000000 -0.12585442 0.37246919 -0.20845194 0.2286049 -0.0002871925 -0.00027900148 -0.32021031 -0.10647313
204666666666.67 -0.099119142 0.38071865 -0.19019559 0.2414856 -0.00030026957 -0.00024510128 -0.32668144 -0.08499077
204733333333.33 -0.074785084 0.38757554 -0.16902989 0.25386462 -0.00032656931 -0.00021770231 -0.33204797 -0.064704806
204800000000 -0.048261285 0.39143744 -0.1485855 0.26079094 -0.0003252282 -0.00018745715 -0.33662465 -0.041750897
204866666666.67 -0.020845048 0.39320722 -0.12585261 0.27028868 -0.00033857915 -0.00018557442 -0.33891022 -0.019851789
204933333333.33 0.0047361553 0.39320654 -0.10486912 0.27461481 -0.00036944775 -0.00015243233 -0.3392235 0.0016693473
205000000000 0.029231399 0.39392155 -0.0829513 0.28033847 -0.00036446413 -0.00014702507 -0.33826035 0.022609092
205066666666.67 0.053815246 0.39104915 -0.061399736 0.28138894 -0.00038697623 -0.00012590313 -0.3366628 0.042473435
205133333333.33 0.078406379 0.38620174 -0.041021667 0.28446257 -0.00038929106 -0.00010069158 -0.33460504 0.063883215
205200000000 0.10541564 0.37998748 -0.020057559 0.28431106 -0.00039473371 -7.1199378e-05 -0.33125898 0.084166206
205266666666.67 0.13353211 0.37001395 0.0030812789 0.28264305 -0.00041071157 -4.4473425e-05 -0.32654083 0.10441417
205333333333.33 0.15737124 0.36424303 0.02470246 0.27976173 -0.00041074885 -3.148074e-06 -0.31965181 0.12611178
205400000000 0.18094799 0.35014266 0.046258256 0.2742033 -0.00041612293 9.0238464e-06 -0.31178474 0.14506021
205466666666.67 0.20036678 0.33779815 0.065395862 0.26891437 -0.00039795716 3.5989855e-05 -0.30423695 0.1662171
205533333333.33 0.22980155 0.32468677 0.086813785 0.25916278 -0.00042361289 4.8301041e-05 -0.29317594 0.18478291
205600000000 0.24750218 0.30971408 0.10602822 0.2484827 -0.0003994311 9.9941914e-05 -0.28225553 0.20250753
205666666666.67 0.26312989 0.28783599 0.12189932 0.23906428 -0.00040746469 0.00014587835 -0.26875326 0.22084622
205733333333.33 0.2844952 0.27012575 0.14002231 0.22641696 -0.00040038349 0.00014960382 -0.25541919 0.23683907
205800000000 0.29904637 0.24643116 0.15267149 0.21191582 -0.00039033504 0.00017906142 -0.2410107 0.25264001
205866666666.67 0.31529567 0.2292845 0.16679671 0.19913873 -0.0003796446 0.00019074747 -0.22448047 0.26949558
205933333333.33 0.32714671 0.2050536 0.1815272 0.18600973 -0.0003710856 0.00023441562 -0.20821771 0.28399608
206000000000 0.33744189 0.18418691 0.19359082 0.16945563 -0.00035295959 0.00025964528 -0.19127178 0.29748341
206066666666.67 0.3513771 0.15692566 0.20312871 0.15135364 -0.00033498355 0.00026053935 -0.17263946 0.30838969
206133333333.33 0.35810876 0.13251814 0.21388347 0.13441281 -0.00031550066 0.00029861354 -0.15375909 0.3191435
206200000000 0.36708131 0.10382565 0.22497557 0.11590672 -0.00029236873 0.00032806565 -0.13470012 0.32713157
206266666666.67 0.37531057 0.08368662 0.22833644 0.099364527 -0.00028656318 0.00034403006 -0.11279648 0.33458999
206333333333.33 0.37548712 0.053166628 0.2324788 0.078598 -0.00024931025 0.0003657105 -0.092022605 0.34211957
206400000000 0.37931967 0.024455145 0.23470573 0.061634757 -0.00022784818 0.00037085963 -0.069910176 0.34577245
206466666666.67 0.3787418 -0.0013497211 0.23890004 0.041917726 -0.00021441218 0.00040510012 -0.048841082 0.35007799
206533333333.33 0.37355679 -0.028126687 0.23660462 0.022068739 -0.00019349833 0.00041390225 -0.027537435 0.35258701
206600000000 0.37255418 -0.056533992 0.23701566 0.0044709146 -0.00015144957 0.000418382 -0.0061041862 0.35433033
206666666666.67 0.36493826 -0.082251549 0.23674546 -0.0093322285 -0.00012778444 0.00043292902 0.016639825 0.3533572
206733333333.33 0.35488528 -0.10584137 0.23130298 -0.030382015 -9.3824725e-05 0.00046319552 0.037198514 0.35203469
206800000000 0.34946483 -0.13167751 0.22581369 -0.046247922 -6.2080406e-05 0.00046110142 0.058628902 0.34710276
206866666666.67 0.33285221 -0.15525238 0.21892387 -0.061209392 -3.1952513e-05 0.00046065357 0.080688104 0.34455752
206933333333.33 0.31573209 -0.18032439 0.21097393 -0.079093598 -6.5782915e-06 0.00046060767 0.10084195 0.33909526
207000000000 0.30075747 -0.2009891 0.20319207 -0.092528358 2.1519008e-05 0.00046532793 0.12311873 0.33339739
207066666666.67 0.29010037 -0.22157338 0.19643775 -0.10879076 5.5594777e-05 0.00045587105 0.14562681 0.32415688
207133333333.33 0.27401701 -0.23997197 0.18633112 -0.12348376 8.5588792e-05 0.000461255 0.16765279 0.3128632
207200000000 0.25142699 -0.26055098 0.17132112 -0.13483904 0.0001106631 0.00045710499 0.18602295 0.29741693
207266666666.67 0.22911173 -0.27565816 0.16239582 -0.14542371 0.00015720009 0.0004521049 0.20285112 0.2844249
207333333333.33 0.20665535 -0.29209781 0.14834557 -0.15675451 0.000191834 0.0004500525 0.21923074 0.2713728
207400000000 0.18249321 -0.30802187 0.13332073 -0.16632326 0.00021080463 0.00044353478 0.23327264 0.259009
207466666666.67 0.15996245 -0.31904447 0.12097254 -0.17269751 0.00024091489 0.00042363085 0.25144637 0.2428232
207533333333.33 0.13348654 -0.32680956 0.10549727 -0.18150234 0.00028115627 0.00041727253 0.26650777 0.22369526
207600000000 0.10687733 -0.3367129 0.089704275 -0.18532091 0.0003114033 0.00038312719 0.27931052 0.20580068
207666666666.67 0.079306312 -0.3384921 0.073192015 -0.19118308 0.00031076642 0.00035829056 0.29098225 0.18504484
207733333333.33 0.053030297 -0.34621632 0.059256032 -0.19420008 0.00036222587 0.00033808305 0.30197623 0.16605672
207800000000 0.029266804 -0.35015315 0.042193606 -0.19621748 0.00037669338 0.00031797137 0.30878881 0.14642841
207866666666.67 -0.0021308996 -0.34433234 0.026740592 -0.19666925 0.00039318608 0.00028467225 0.31709284 0.12432843
207933333333.33 -0.024430647 -0.34602219 0.012894057 -0.19534838 0.00041995579 0.00026465076 0.3208718 0.10455316
208000000000 -0.051847622 -0.34352899 -0.0020239279 -0.19299631 0.00043514144 0.0002333494 0.32686532 0.081888437
208066666666.67 -0.083132222 -0.3366307 -0.01704948 -0.19184129 0.00043474467 0.00021523905 0.33061102 0.061147247
208133333333.33 -0.10750458 -0.33168638 -0.030650653 -0.18655771 0.00047096726 0.00017240157 0.332243 0.037124716
208200000000 -0.12869377 -0.31995884 -0.045528449 -0.18250433 0.00048391608 0.00013704365 0.33176228 0.014879838
208266666666.67 -0.16115239 -0.30708811 -0.057919975 -0.17873268 0.00050280086 9.5426221e-05 0.33014634 -0.006668888
208333333333.33 -0.18360932 -0.29776278 -0.070524916 -0.16876195 0.00050989765 8.6875662e-05 0.32799208 -0.025567695
208400000000 -0.20571016 -0.2848669 -0.081727281 -0.16464753 0.00050511793 2.9499148e-05 0.3254706 -0.047623485
208466666666.67 -0.22756936 -0.26230705 -0.095762618 -0.15432394 0.00051222579 1.5184862e-05 0.32210997 -0.071271837
208533333333.33 -0.24652763 -0.2465159 -0.10513725 -0.14542904 0.0005201695 -3.3047312e-05 0.31373727 -0.093973361
208600000000 -0.26847786 -0.22953348 -0.11468725 -0.13747272 0.00050808396 -6.2843799e-05 0.30507272 -0.11828983
208666666666.67 -0.28786564 -0.20524651 -0.12313808 -0.12433838 0.0004744358 -9.4136565e-05 0.29355469 -0.13752882
208733333333.33 -0.30145684 -0.18521221 -0.13080169 -0.11398544 0.00048886804 -0.00013986422 0.2817139 -0.1553589
208800000000 -0.31326145 -0.15994193 -0.13658938 -0.10374841 0.00047823702 -0.00014527084 0.26754946 -0.17420039
208866666666.67 -0.32884178 -0.13557923 -0.14323428 -0.092788257 0.00046644761 -0.00017746344 0.25528196 -0.18783036
208933333333.33 -0.33598876 -0.11032815 -0.14819735 -0.079600558 0.00045964686 -0.00020472037 0.24116068 -0.20406824
209000000000 -0.34745613 -0.084874682 -0.15124065 -0.069028199 0.00045872445 -0.00024924547 0.22430524 -0.21993515
209066666666.67 -0.3566609 -0.059279118 -0.15580058 -0.055622377 0.00043193792 -0.00028271746 0.20765552 -0.23363727
209133333333.33 -0.36019695 -0.030446403 -0.156214 -0.043898933 0.00040666107 -0.00031736246 0.18940516 -0.24698089
209200000000 -0.36503744 -0.0048176795 -0.15993819 -0.032115661 0.00039809104 -0.00034805754 0.16884318 -0.25920457
209266666666.67 -0.3670969 0.023024112 -0.15894084 -0.018283453 0.00036639557 -0.00037760451 0.15109622 -0.2690613
209333333333.33 -0.36713424 0.054098889 -0.15711319 -0.0075292028 0.00033639098 -0.00040325793 0.12889788 -0.27817106
209400000000 -0.36297727 0.082221821 -0.1556299 0.0052364841 0.00030718104 -0.00042122329 0.10759794 -0.28496179
209466666666.67 -0.3573871 0.11089229 -0.15397468 0.01730781 0.00027220877 -0.00044191684 0.086047433 -0.29133621
209533333333.33 -0.35317516 0.13067882 -0.15106852 0.025657013 0.00025010837 -0.00046148623 0.065242253 -0.29638919
209600000000 -0.34334433 0.15882184 -0.14771898 0.038344689 0.00022142699 -0.00047928776 0.04263765 -0.29920077
209666666666.67 -0.33409691 0.18616295 -0.14272544 0.04901284 0.00017115603 -0.00048691963 0.019830346 -0.30116284
209733333333.33 -0.32192054 0.21138732 -0.13683192 0.059829619 0.00014836944 -0.00048607605 -0.0025504082 -0.30033186
209800000000 -0.31459954 0.23895448 -0.13010575 0.068201348 0.00013492434 -0.00051122264 -0.026069311 -0.29834551
209866666666.67 -0.29172623 0.26208287 -0.12354146 0.076884858 8.015849e-05 -0.00050613587 -0.045714013 -0.29330617
209933333333.33 -0.27880925 0.28620705 -0.11651793 0.08517237 5.8954392e-05 -0.00052074273 -0.068742611 -0.28901112
210000000000 -0.2566784 0.30691838 -0.1085795 0.092819862 1.7912258e-05 -0.00052349747 -0.090321824 -0.28249159
210066666666.67 -0.23820508 0.32824564 -0.098916896 0.10004127 -2.1235421e-05 -0.0005119819 -0.11283753 -0.27391142
210133333333.33 -0.21850614 0.34536433 -0.093713239 0.10497589 -5.9635611e-05 -0.00053116016 -0.13390192 -0.26401451
210200000000 -0.19646522 0.36016029 -0.083307452 0.110319 -9.982023e-05 -0.00052545738 -0.15293311 -0.25143561
210266666666.67 -0.1692531 0.37719768 -0.072745174 0.11597656 -0.0001342672 -0.00049671694 -0.17048246 -0.23825681
210333333333.33 -0.14432904 0.39246377 -0.063363165 0.11950795 -0.00017276828 -0.0005058542 -0.18950364 -0.22399466
210400000000 -0.12132347 0.4051421 -0.053715859 0.12179639 -0.00021191008 -0.00049222622 -0.20672956 -0.20868549
210466666666.67 -0.093115509 0.41591975 -0.042244699 0.12559126 -0.00023327311 -0.00047733804 -0.22263092 -0.19275206
210533333333.33 -0.066939726 0.4246695 -0.034626126 0.12722749 -0.00026984577 -0.00045142579 -0.23726758 -0.1738244
210600000000 -0.036854491 0.43353447 -0.020848144 0.12854464 -0.00029262065 -0.00044946771 -0.25010085 -0.15463021
210666666666.67 -0.0065692551 0.43891394 -0.015287242 0.12946503 -0.00032602827 -0.00040991241 -0.26191756 -0.13575135
210733333333.33 0.020325959 0.44416547 -0.004816968 0.12906349 -0.00034604498 -0.00039762969 -0.27194306 -0.11549176
210800000000 0.050634339 0.43930483 0.0062479377 0.12769449 -0.00037180149 -0.00036585427 -0.28200132 -0.094325267
210866666666.67 0.077773809 0.43993887 0.01525077 0.12356823 -0.00040104543 -0.00033682943 -0.28845167 -0.071675889
210933333333.33 0.10929383 0.43532819 0.022656299 0.12292321 -0.00042926235 -0.00030946004 -0.29474914 -0.048050087
211000000000 0.13576347 0.43260902 0.032090619 0.11859868 -0.00044155685 -0.00028436672 -0.29888391 -0.024527729
211066666666.67 0.16623339 0.4277308 0.040527571 0.11446438 -0.00044821392 -0.0002571012 -0.30109879 -0.00088904798
211133333333.33 0.19778877 0.4149918 0.048200376 0.10864713 -0.00046198512 -0.00021388911 -0.30045459 0.022226118
211200000000 0.21810773 0.40710217 0.055072293 0.10464658 -0.00047988049 -0.00017998842 -0.30044162 0.046149611
211266666666.67 0.24888797 0.39552546 0.061453409 0.100157 -0.00050692342 -0.00017128736 -0.29604915 0.069068536
211333333333.33 0.27846348 0.3748638 0.067951135 0.092858709 -0.00050963904 -0.0001093232 -0.29269224 0.091349319
211400000000 0.30386621 0.36527181 0.075133428 0.087588839 -0.00050380873 -0.00011180011 -0.28613061 0.11395464
211466666666.67 0.32979521 0.34573653 0.079455338 0.079650424 -0.00050734589 -5.7896628e-05 -0.27792934 0.13750187
211533333333.33 0.35117489 0.32570472 0.083587721 0.072968252 -0.00051744014 -2.0472915e-05 -0.26890409 0.15902692
211600000000 0.37046561 0.30756727 0.089577928 0.064774752 -0.00052074785 1.1615593e-05 -0.2575981 0.17968588
211666666666.67 0.39120123 0.28921354 0.093521088 0.059450731 -0.00052340579 6.1325787e-05 -0.24521108 0.20200679
211733333333.33 0.41253826 0.25893477 0.095635712 0.051842343 -0.00051363604 8.8419925e-05 -0.23114884 0.22054979
211800000000 0.42527506 0.23563987 0.098630145 0.044067126 -0.00051361398 0.00010188299 -0.21469359 0.2400091
211866666666.67 0.44133332 0.2097849 0.10115133 0.034414452 -0.00049375551 0.00014806348 -0.19710802 0.25791219
211933333333.33 0.45583966 0.18594107 0.10160406 0.027587373 -0.00049604714 0.00018143063 -0.17999415 0.27351844
212000000000 0.47327313 0.15518293 0.10264537 0.019146653 -0.0004738665 0.00021210643 -0.16140723 0.285956
212066666666.67 0.48125616 0.13024223 0.10132107 0.011245463 -0.00046453756 0.00023409999 -0.14281964 0.30178687
212133333333.33 0.48659176 0.10164925 0.1014862 0.0039557833 -0.00045047645 0.00027649789 -0.1198533 0.31427285
212200000000 0.49399289 0.070889093 0.10138748 -0.0041842991 -0.00043338121 0.00031277732 -0.097152092 0.32466722
212266666666.67 0.49829632 0.040805042 0.10071392 -0.011168417 -0.00040959293 0.00032322831 -0.073999733 0.33546603
212333333333.33 0.50817567 0.015143529 0.096442692 -0.017088812 -0.00038091617 0.00034727657 -0.051113203 0.34098685
212400000000 0.50814813 -0.021995805 0.095287248 -0.023947915 -0.00036159004 0.00038231554 -0.027161762 0.34740758
212466666666.67 0.50183499 -0.050994143 0.091891348 -0.03234769 -0.00034434369 0.00040484566 -0.0030472018 0.35275114
212533333333.33 0.50857466 -0.082171917 0.088591464 -0.038097445 -0.00030188437 0.0004119123 0.022910103 0.35312727
212600000000 0.49843004 -0.1133357 0.084506012 -0.043955013 -0.00027636177 0.00044952007 0.048130408 0.35579282
212666666666.67 0.48534077 -0.14111859 0.079695038 -0.051269174 -0.00024032003 0.00045474118 0.072014235 0.35478592
212733333333.33 0.47834748 -0.17117152 0.075212628 -0.055056624 -0.00021395431 0.00046776066 0.099344879 0.35207009
212800000000 0.47306502 -0.20048787 0.070701815 -0.059150811 -0.00018320346 0.00048784851 0.12358155 0.34724835
212866666666.67 0.45652068 -0.23244134 0.06441544 -0.064853489 -0.0001385698 0.00049326179 0.14839715 0.34168977
212933333333.33 0.43989286 -0.25712383 0.058027022 -0.068529285 -0.00011541104 0.00049844547 0.17344923 0.33427021
213000000000 0.42042175 -0.2807748 0.053565193 -0.071133628 -8.5987005e-05 0.00051631627 0.19724716 0.32355422
213066666666.67 0.4094955 -0.31032637 0.048338879 -0.07354486 -5.4081618e-05 0.0005147449 0.2184512 0.31170186
213133333333.33 0.39165819 -0.32955796 0.041446876 -0.076978207 -3.1353877e-05 0.00051898253 0.24074391 0.29992068
213200000000 0.36613485 -0.35865149 0.036290422 -0.079361141 7.03556e-07 0.00050190813 0.26395142 0.28739241
213266666666.67 0.34370223 -0.37705836 0.028109722 -0.080889687 3.9931998e-05 0.00052594941 0.28574446 0.27183381
213333333333.33 0.32273698 -0.39061117 0.024327463 -0.082305118 7.8240642e-05 0.00050116942 0.30647594 0.25226638
213400000000 0.29696891 -0.42071816 0.016248815 -0.083123341 0.00010903181 0.00050130091 0.32141033 0.23748904
213466666666.67 0.27108973 -0.43442017 0.011669919 -0.08403717 0.00013618948 0.00050216331 0.3421458 0.21855021
213533333333.33 0.24398339 -0.44797099 0.0035908706 -0.080978453 0.00017213007 0.00049072551 0.35970414 0.19510436
213600000000 0.2143691 -0.46028104 -0.0022119563 -0.080749013 0.0001976354 0.00047402101 0.37400347 0.16952792
213666666666.67 0.18400659 -0.464717 -0.0071479902 -0.079922639 0.00021571874 0.00045865343 0.38393483 0.14781493
213733333333.33 0.15744045 -0.47809297 -0.013261958 -0.079130754 0.00027112165 0.00044649796 0.39440176 0.12592006
213800000000 0.1309332 -0.48372167 -0.017607721 -0.076943219 0.00028925986 0.00043359085 0.40428776 0.10131342
213866666666.67 0.098736554 -0.4934645 -0.024552705 -0.073624156 0.00031129248 0.00039994909 0.41019624 0.077091858
213933333333.33 0.069217861 -0.49877772 -0.028529692 -0.07019341 0.00033387885 0.00039026845 0.41934976 0.054389831
214000000000 0.037992969 -0.50300246 -0.035116546 -0.068300501 0.00034081793 0.00036322279 0.42627823 0.027128667
214066666666.67 0.0084928125 -0.49641663 -0.040322229 -0.065737203 0.00038128742 0.00035585026 0.42832151 -0.0016174316
214133333333.33 -0.020102452 -0.49490932 -0.0416734 -0.061962605 0.00040827697 0.00033235594 0.43027869 -0.026662026
214200000000 -0.054394417 -0.49111679 -0.047447171 -0.059776373 0.00041910322 0.00028919868 0.4339754 -0.051004298
214266666666.67 -0.085390002 -0.48332641 -0.049438469 -0.055582922 0.00044201806 0.00027786609 0.43188453 -0.078802034
214333333333.33 -0.11516158 -0.47524402 -0.053817913 -0.049274959 0.00046822347 0.0002456801 0.42763126 -0.10876171
214400000000 -0.1406751 -0.46391535 -0.056261845 -0.047134969 0.00046308679 0.00022514119 0.42146492 -0.13291511
214466666666.67 -0.16927575 -0.45389462 -0.059838906 -0.039371628 0.00049003511 0.00019081308 0.41780013 -0.15762618
214533333333.33 -0.19757469 -0.44020593 -0.060661197 -0.034832384 0.00050436909 0.0001526508 0.40902659 -0.18329754
214600000000 -0.22387125 -0.42504221 -0.063396543 -0.03327243 0.00050814613 0.00013631157 0.40139505 -0.20932321
214666666666.67 -0.2465103 -0.40942556 -0.064264551 -0.027664902 0.00052938185 9.4453731e-05 0.38642082 -0.23451528
214733333333.33 -0.27335143 -0.39139947 -0.065885656 -0.022181388 0.00052187062 5.7156358e-05 0.37702662 -0.25495273
214800000000 -0.29556826 -0.3647472 -0.066929266 -0.017101107 0.00053654215 4.2186497e-05 0.359052 -0.27973914
214866666666.67 -0.31627241 -0.34614345 -0.066037066 -0.0121231 0.00053750956 1.6530248e-06 0.34407812 -0.30075267
214933333333.33 -0.33804417 -0.3259266 -0.066723697 -0.0078989342 0.00054022094 -3.5326782e-05 0.32824051 -0.31993985
215000000000 -0.35624552 -0.30044273 -0.067087427 -0.0035937261 0.00054103794 -5.7401732e-05 0.3070581 -0.3406367
215066666666.67 -0.37610012 -0.27586707 -0.066443503 0.0014444534 0.00052308512 -0.00010292816 0.29146835 -0.35887778
215133333333.33 -0.39117774 -0.24652743 -0.065810733 0.0074726203 0.00052312872 -0.00013132123 0.27054173 -0.37463731
215200000000 -0.40549016 -0.22262126 -0.064500369 0.010226004 0.00052650663 -0.0001777382 0.2494725 -0.39280507
215266666666.67 -0.41609895 -0.19429719 -0.062488616 0.015097681 0.00051478972 -0.00019494708 0.22426039 -0.40867096
215333333333.33 -0.42359227 -0.16076483 -0.062231679 0.02223224 0.00049287209 -0.00024140242 0.19753523 -0.42262256
215400000000 -0.43274853 -0.13279916 -0.058497064 0.024898747 0.00049095141 -0.00026654219 0.17610338 -0.43566903
215466666666.67 -0.43779594 -0.10467036 -0.054400083 0.030701635 0.00046760147 -0.00030410965 0.15014371 -0.44608435
215533333333.33 -0.44079706 -0.068426773 -0.054131206 0.033077188 0.00043656051 -0.00033534796 0.1253321 -0.45412385
215600000000 -0.44364873 -0.040978119 -0.051704459 0.034945562 0.00042206855 -0.00037430378 0.098116264 -0.46118471
215666666666.67 -0.43898195 -0.0082956254 -0.048613988 0.04262992 0.00038846571 -0.00038604171 0.070768207 -0.46670282
215733333333.33 -0.43373248 0.019666769 -0.044899348 0.042074203 0.00036807643 -0.00041120377 0.044484526 -0.47150666
215800000000 -0.43010214 0.049255565 -0.04056577 0.045347866 0.00033771881 -0.00044308434 0.015569821 -0.47405323
215866666666.67 -0.42019024 0.083029047 -0.037478864 0.048774023 0.00032235519 -0.0004551654 -0.010684699 -0.47294229
215933333333.33 -0.41586199 0.10784233 -0.034983978 0.049198486 0.00029275019 -0.00047887609 -0.038800776 -0.47357896
216000000000 -0.4050765 0.14030108 -0.030057933 0.052733645 0.00024901656 -0.00050876371 -0.068019316 -0.47056562
216066666666.67 -0.39314488 0.1666012 -0.024897097 0.054838121 0.0002079133 -0.00052569696 -0.095191769 -0.46619415
216133333333.33 -0.37185729 0.1945684 -0.022488261 0.055155683 0.00020035126 -0.00053650013 -0.12170431 -0.45892453
216200000000 -0.3577413 0.21917418 -0.019123299 0.056648552 0.00015784377 -0.00055542553 -0.14858116 -0.45046926
216266666666.67 -0.34221065 0.24487296 -0.014021937 0.057832956 0.00013141146 -0.00055640459 -0.17439511 -0.43991795
216333333333.33 -0.31716406 0.26778272 -0.0096396375 0.05623671 9.126409e-05 -0.0005774615 -0.19987309 -0.42852435
216400000000 -0.29732001 0.29012296 -0.0053070728 0.056726068 4.5904395e-05 -0.00057658763 -0.22455691 -0.41522366
216466666666.67 -0.2736119 0.31302366 -0.00084735081 0.055859514 1.7475191e-05 -0.0006071169 -0.24811295 -0.39932248
216533333333.33 -0.24938574 0.33427924 0.0049076062 0.0570371 -3.3406162e-05 -0.00058112643 -0.26824826 -0.38168079
216600000000 -0.2272682 0.34737656 0.006856272 0.054924197 -6.0215636e-05 -0.00059504568 -0.28924516 -0.36338663
216666666666.67 -0.19317412 0.3672314 0.0081401318 0.054857295 -0.00010995877 -0.00058583129 -0.30563435 -0.34719104
216733333333.33 -0.15903656 0.37772503 0.013724346 0.054262169 -0.00014845312 -0.00058325927 -0.3265509 -0.32900959
216800000000 -0.13654476 0.38920435 0.018321596 0.054072604 -0.00019147783 -0.00055442157 -0.34776282 -0.31002623
216866666666.67 -0.10354725 0.39148539 0.02127354 0.051915314 -0.00022757717 -0.00055543805 -0.36694843 -0.28535748
216933333333.33 -0.070335835 0.40447944 0.024850637 0.049488168 -0.00027620827 -0.00055292714 -0.38098714 -0.26067975
217000000000 -0.040257812 0.40814406 0.030071713 0.047006454 -0.00029764231 -0.00053731521 -0.39561594 -0.23633939
217066666666.67 -0.0087732449 0.41013908 0.03085367 0.043674722 -0.00032740473 -0.00051373814 -0.40474966 -0.21129099
217133333333.33 0.022368222 0.41067433 0.032346081 0.041323844 -0.00037249582 -0.00049822038 -0.41663364 -0.18701155
217200000000 0.053222187 0.40555477 0.037511315 0.036057279 -0.00041041116 -0.00045456557 -0.42693546 -0.15838842
217266666666.67 0.088239506 0.39935058 0.041670334 0.034763508 -0.00044779107 -0.00043576802 -0.43344882 -0.13261099
217333333333.33 0.11519062 0.38991502 0.041580513 0.032259848 -0.00048783925 -0.0003928793 -0.44129658 -0.10643688
217400000000 0.14736189 0.38277668 0.043244418 0.028849944 -0.00051189243 -0.00037777418 -0.44307759 -0.079140678
217466666666.67 0.17861748 0.36960709 0.04736514 0.0252198 -0.00051816826 -0.00034378399 -0.44696552 -0.050377853
217533333333.33 0.20840016 0.35597315 0.046045855 0.023444202 -0.00055008958 -0.00029378419 -0.44516528 -0.021548465
217600000000 0.23634368 0.34150356 0.050261576 0.019782677 -0.00059069064 -0.00025669139 -0.44270998 0.004498709
217666666666.67 0.25801814 0.31909347 0.048255596 0.015947197 -0.00059235486 -0.00022060625 -0.44061068 0.034321129
217733333333.33 0.29163113 0.29794669 0.050048418 0.011380825 -0.00060771202 -0.00017762498 -0.43446469 0.060737193
217800000000 0.31121126 0.27507213 0.050032016 0.0073580872 -0.00062227971 -0.00013580867 -0.42821011 0.085888214
217866666666.67 0.33509734 0.25390804 0.052023094 0.004342013 -0.00063453126 -9.0062189e-05 -0.41752505 0.11600201
217933333333.33 0.35441315 0.22579443 0.051772527 0.00071991235 -0.0006541966 -5.0854898e-05 -0.40610749 0.14085273
218000000000 0.37435088 0.20189714 0.049035788 -0.002441749 -0.00065433141 -7.3640986e-06 -0.39500397 0.16669548
218066666666.67 0.3910051 0.17113769 0.046948113 -0.0088625355 -0.00065466348 4.1844149e-05 -0.37973171 0.19102089
218133333333.33 0.40364105 0.14336777 0.048146121 -0.010652006 -0.00065056782 0.00010022183 -0.36142939 0.21475567
218200000000 0.42072743 0.11167195 0.04701896 -0.014721581 -0.00064497167 0.00010960113 -0.34601814 0.23665407
218266666666.67 0.4248834 0.083105057 0.04620973 -0.018640991 -0.00062256196 0.0001728506 -0.32470956 0.26024634
218333333333.33 0.43471611 0.047591459 0.044065602 -0.022555519 -0.00061211723 0.00022829665 -0.30486074 0.28035063
218400000000 0.43878374 0.015659809 0.040064 -0.023902979 -0.000616826 0.00027084409 -0.2821877 0.29744595
218466666666.67 0.44670364 -0.017735317 0.036879897 -0.023658907 -0.00058455614 0.00031754194 -0.25820556 0.31227231
218533333333.33 0.4482407 -0.055402465 0.037818965 -0.031003829 -0.00056617573 0.0003403803 -0.23712079 0.32643765
218600000000 0.43633351 -0.087155208 0.033421829 -0.032292642 -0.00053905632 0.00036727742 -0.21256988 0.34241787
218666666666.67 0.4364666 -0.11834328 0.030017506 -0.033414878 -0.00050365413 0.00041391631 -0.18443285 0.35301352
218733333333.33 0.43330938 -0.15151067 0.027378971 -0.034126032 -0.00048146214 0.00045635356 -0.15835963 0.35973716
218800000000 0.42526934 -0.19219771 0.024982328 -0.037579253 -0.00045683928 0.00048374594 -0.13247825 0.36739159
218866666666.67 0.40620384 -0.21287788 0.022889288 -0.037195414 -0.00043511737 0.00051585597 -0.10218643 0.37488592
218933333333.33 0.40237969 -0.24963999 0.01874302 -0.041030977 -0.00037356463 0.00054105511 -0.072386384 0.37732226
219000000000 0.37714279 -0.28084093 0.0138113 -0.042969901 -0.00034762558 0.00057034823 -0.045391664 0.38032731
219066666666.67 0.36350816 -0.30474505 0.011326802 -0.040129475 -0.00030316573 0.00059830846 -0.015816033 0.38091168
219133333333.33 0.3443774 -0.33125773 0.009550334 -0.04143028 -0.00025839312 0.00059795141 0.011988655 0.37817755
219200000000 0.32491878 -0.36129704 0.0051380042 -0.042439997 -0.00021236023 0.00063046307 0.040855303 0.37128907
219266666666.67 0.30076304 -0.37810922 0.002651168 -0.042406734 -0.00018510479 0.00065763324 0.069814235 0.36434138
219333333333.33 0.27311307 -0.40130258 -0.00010314584 -0.042830516 -0.00013234235 0.00065511133 0.094795205 0.36074248
219400000000 0.25624534 -0.42216906 -0.003897096 -0.041284766 -8.0622216e-05 0.000647143 0.12877169 0.3526738
219466666666.67 0.22102946 -0.44041145 -0.0068573765 -0.040133066 -3.5931094e-05 0.00067233591 0.15388229 0.33587426
219533333333.33 0.19092789 -0.45814222 -0.010590941 -0.039991193 -5.437294e-06 0.00066022947 0.17616576 0.31908873
219600000000 0.16616 -0.47765675 -0.012993313 -0.039161336 3.3768534e-05 0.00065845047 0.19698681 0.30349281
219666666666.67 0.1305338 -0.49239534 -0.018330384 -0.037713028 9.2530827e-05 0.00063646556 0.22339192 0.28731942
219733333333.33 0.099787459 -0.49930176 -0.018110279 -0.036049712 0.00013723481 0.00063632336 0.24710864 0.26670367
219800000000 0.064910486 -0.50879085 -0.018057508 -0.033994958 0.00017651799 0.00062183483 0.26521152 0.2480434
219866666666.67 0.037368953 -0.51476067 -0.01983837 -0.031475864 0.00022951869 0.00063231227 0.28406575 0.22422299
219933333333.33 0.00020164251 -0.51525128 -0.024910893 -0.029385677 0.00026460236 0.00058561959 0.30184168 0.20019457
220000000000 -0.033821285 -0.52094877 -0.027740773 -0.024227321 0.00028940581 0.00058343139 0.31850004 0.17483276
