!Keysight Technologies,N5222B,MY56022597,A.18.40.03
!Date: Tuesday, March 31, 2026 11:09:31
!Correction: S11(C  2-Port  ) 
!S21(C  2-Port  ) 
!S12(C  2-Port  ) 
!S22(C  2-Port  ) 
!S2P File: Measurements: S11, S21, S12, S22:
# Hz S  RI   R 50
140000000000 -0.010247929 -0.2216524 -2.0045345 0.29496616 -1.3327866e-05 1.9439334e-05 -0.032838266 0.2126639
140066666666.67 -0.038016461 -0.2192997 -1.9673009 0.56262404 -3.9539555e-05 1.1539468e-05 -0.013729304 0.21583852
140133333333.33 -0.068610065 -0.21071856 -1.8956629 0.77869463 -3.5715319e-05 4.2271193e-05 0.0048520975 0.21779598
140200000000 -0.090300709 -0.1971222 -1.8072697 1.0030022 -5.0414284e-05 2.7018516e-05 0.024651945 0.21832526
140266666666.67 -0.11303847 -0.18650818 -1.6882278 1.1949724 -4.2438893e-05 3.5821497e-05 0.045273028 0.21626744
140333333333.33 -0.13205817 -0.16807137 -1.5514469 1.3951075 -4.0592736e-06 3.3985081e-05 0.06548883 0.21295498
140400000000 -0.15327612 -0.14722975 -1.3849784 1.5776401 -1.7805018e-05 4.4338594e-05 0.084657542 0.20817994
140466666666.67 -0.17008583 -0.12857692 -1.2161676 1.7237117 -1.7980008e-06 2.8931976e-05 0.10403177 0.20212168
140533333333.33 -0.18379088 -0.10617401 -1.0148983 1.8700167 -1.1447899e-05 2.3371353e-05 0.12191708 0.19470489
140600000000 -0.19098693 -0.082732387 -0.81816643 1.9748684 -1.55854e-05 3.8223221e-05 0.14137666 0.18559304
140666666666.67 -0.19984534 -0.060010459 -0.58327448 2.0720022 -2.0473793e-05 2.3964927e-05 0.15955874 0.17253289
140733333333.33 -0.20604926 -0.039993573 -0.36759967 2.1398799 -4.1074081e-06 4.8432659e-05 0.17792813 0.15921365
140800000000 -0.20392033 -0.011419289 -0.11610723 2.1755357 -9.9244735e-06 1.6195478e-05 0.19352059 0.1411977
140866666666.67 -0.20706585 0.0087921917 0.12114072 2.1814044 -9.5241558e-07 4.2253821e-05 0.20665109 0.12441698
140933333333.33 -0.20639296 0.036431231 0.35852984 2.1817038 -1.7092461e-05 2.7647609e-05 0.21893926 0.10674969
141000000000 -0.19719313 0.060860999 0.59230882 2.1410427 -5.0213002e-06 3.5213438e-05 0.22960141 0.087337628
141066666666.67 -0.18805687 0.083590969 0.82384503 2.0567255 -8.2903512e-07 2.5391966e-05 0.23720814 0.067094326
141133333333.33 -0.18179671 0.10620618 1.0687389 1.9844522 4.1362473e-06 2.2657059e-05 0.24436413 0.046583623
141200000000 -0.16917118 0.12905982 1.2831571 1.8590623 7.174277e-06 4.2281419e-05 0.24754365 0.024419755
141266666666.67 -0.15246359 0.14677972 1.4835693 1.7247221 9.4005645e-06 1.5526704e-05 0.25060371 0.003885366
141333333333.33 -0.13728654 0.16848999 1.6648775 1.5514367 4.0737455e-06 1.6030292e-05 0.24927349 -0.018714182
141400000000 -0.12063583 0.18114911 1.8313169 1.3807809 9.2844193e-06 2.6606951e-05 0.24856611 -0.038693994
141466666666.67 -0.10250585 0.19325276 1.9664263 1.1859772 9.5066343e-06 2.3342905e-05 0.24508668 -0.058961682
141533333333.33 -0.078155473 0.20754927 2.0946755 0.98947972 6.9281591e-06 3.0015397e-05 0.2405591 -0.078459792
141600000000 -0.054378323 0.21914995 2.1967812 0.75104648 1.6639018e-05 2.6912312e-05 0.23489431 -0.09928064
141666666666.67 -0.027647872 0.22192663 2.2804351 0.52810407 1.6378835e-05 3.6179172e-05 0.22687389 -0.11831022
141733333333.33 -0.0054234639 0.22866519 2.3338578 0.27228296 1.138892e-06 3.0647258e-05 0.21683453 -0.13930108
141800000000 0.020704404 0.2345096 2.3676724 0.02256763 3.2002237e-05 2.39076e-05 0.20431465 -0.15825039
141866666666.67 0.041372888 0.23255466 2.3843508 -0.23833179 3.77877e-05 1.9777242e-05 0.19095144 -0.17659603
141933333333.33 0.069841392 0.22677287 2.3422692 -0.4900493 3.51085e-05 1.2870706e-05 0.17427552 -0.19100732
142000000000 0.093895935 0.22284034 2.2987349 -0.74776107 2.4166256e-05 2.5061026e-05 0.15797685 -0.20577472
142066666666.67 0.11554444 0.21485752 2.1981995 -0.99307668 2.8390226e-05 2.6099397e-05 0.13900486 -0.21870127
142133333333.33 0.13982895 0.20061214 2.0941815 -1.2347777 3.8187165e-05 1.530971e-05 0.12131359 -0.22813919
142200000000 0.16188321 0.19260445 1.9691248 -1.4555318 2.9737854e-05 1.9309526e-05 0.10140225 -0.23792619
142266666666.67 0.1808736 0.17801541 1.8229644 -1.6529628 3.1427233e-05 1.9400468e-05 0.081582099 -0.24626437
142333333333.33 0.20418747 0.16122167 1.6516687 -1.8603115 3.4643959e-05 1.5370586e-05 0.061264966 -0.2520726
142400000000 0.22011235 0.13755457 1.4444393 -2.031415 3.1127958e-05 1.6145463e-05 0.041126996 -0.25671136
142466666666.67 0.2354686 0.12095346 1.2200346 -2.192776 2.8187613e-05 2.4051877e-05 0.017970882 -0.25980774
142533333333.33 0.24726857 0.096024238 0.99098772 -2.3336673 5.8053025e-05 1.4452864e-05 -0.003840548 -0.26136652
142600000000 0.25948602 0.076616779 0.75898153 -2.4329388 4.9305214e-05 5.0978451e-07 -0.025996163 -0.25856715
142666666666.67 0.26639855 0.050272837 0.48480695 -2.5104313 3.9014289e-05 9.1495604e-06 -0.04768518 -0.25502741
142733333333.33 0.27416942 0.024212942 0.22435081 -2.5530179 2.1183107e-05 -1.0425225e-05 -0.067864828 -0.24929884
142800000000 0.2790724 -0.0018986911 -0.041741848 -2.5842581 2.7337197e-05 -1.9287067e-05 -0.087235838 -0.24235657
142866666666.67 0.28063318 -0.033154599 -0.31553823 -2.5815477 3.8275899e-05 3.5156361e-06 -0.10570632 -0.23388958
142933333333.33 0.27704194 -0.057323128 -0.58613896 -2.5553138 4.2270891e-05 -2.3761913e-06 -0.12459688 -0.22401775
143000000000 0.26943487 -0.083153442 -0.85676569 -2.4920669 3.3556331e-05 -1.6682439e-05 -0.14203316 -0.21274713
143066666666.67 0.26388198 -0.10956815 -1.1133277 -2.408525 4.9959486e-05 -2.5300773e-05 -0.15888596 -0.19947104
143133333333.33 0.25780275 -0.13452932 -1.3634646 -2.2921481 5.1664465e-05 -2.9412455e-05 -0.17409761 -0.18428618
143200000000 0.24589697 -0.15734087 -1.604861 -2.1579769 3.7115358e-05 -2.2023924e-05 -0.18772329 -0.1693089
143266666666.67 0.2291384 -0.17936961 -1.8299239 -1.9900985 3.2199448e-05 -1.8991926e-05 -0.20041287 -0.15262446
143333333333.33 0.21548234 -0.2029781 -2.0434506 -1.8066005 2.2787543e-05 -3.6280548e-05 -0.21163338 -0.13452265
143400000000 0.19937131 -0.22405246 -2.2340374 -1.5924295 3.0378547e-05 -2.7697975e-05 -0.2201608 -0.11636379
143466666666.67 0.17808822 -0.23983164 -2.3877089 -1.3693045 2.2372693e-05 -3.1114621e-05 -0.22757466 -0.096659333
143533333333.33 0.15407543 -0.25852591 -2.5413775 -1.1092585 1.5987967e-05 -5.8554309e-05 -0.23351361 -0.077129237
143600000000 0.1298041 -0.27631721 -2.6590428 -0.84970975 1.5095229e-05 -4.5459543e-05 -0.23699391 -0.058250874
143666666666.67 0.10657598 -0.28474265 -2.7416778 -0.57054901 1.1054848e-05 -4.6716792e-05 -0.23895347 -0.037246339
143733333333.33 0.079124585 -0.2971814 -2.8105652 -0.28647268 5.8995711e-06 -4.3337532e-05 -0.2392244 -0.017704587
143800000000 0.054162689 -0.30516067 -2.8427894 0.0022259951 1.9911007e-05 -6.4659187e-05 -0.23822804 0.0018915385
143866666666.67 0.028020397 -0.3068839 -2.8487897 0.2867167 1.7851036e-05 -6.3256572e-05 -0.2354697 0.021223634
143933333333.33 -0.0024259463 -0.31153429 -2.8209338 0.58620679 7.3486717e-07 -6.3888736e-05 -0.23116696 0.040376965
144000000000 -0.028729551 -0.30940205 -2.7718065 0.86497283 -6.5080949e-06 -4.811442e-05 -0.22447814 0.058809243
144066666666.67 -0.058212414 -0.30883843 -2.6722286 1.1564857 -1.2992518e-05 -4.8188394e-05 -0.21613032 0.076948464
144133333333.33 -0.084971517 -0.30257663 -2.5647218 1.4439309 -2.2060836e-05 -6.352683e-05 -0.20727015 0.094271109
144200000000 -0.1094965 -0.29413617 -2.4191852 1.7087481 -1.2580394e-05 -6.2048639e-05 -0.19635943 0.11014861
144266666666.67 -0.13748135 -0.28418934 -2.2540789 1.9447905 -3.0692903e-05 -5.1959189e-05 -0.18407574 0.12548375
144333333333.33 -0.16521595 -0.27218854 -2.0490844 2.1988897 -3.8981412e-05 -4.3403281e-05 -0.17050837 0.13898332
144400000000 -0.18483728 -0.25698912 -1.8236451 2.3957968 -3.9286162e-05 -4.6696248e-05 -0.1556235 0.15072703
144466666666.67 -0.20754296 -0.23966789 -1.5974649 2.5821364 -4.0557588e-05 -4.2363543e-05 -0.14123403 0.16164543
144533333333.33 -0.23046103 -0.22143942 -1.3262067 2.7606235 -5.4848617e-05 -3.0489391e-05 -0.1249707 0.17129382
144600000000 -0.24627478 -0.20171644 -1.0549381 2.9002318 -3.9694856e-05 -2.6106787e-05 -0.10800313 0.17903101
144666666666.67 -0.26481903 -0.17824382 -0.73230052 3.0251844 -5.1400406e-05 -1.2858227e-05 -0.090235934 0.1865122
144733333333.33 -0.27755955 -0.15366104 -0.44349793 3.0875156 -4.9739367e-05 -2.2159677e-05 -0.071915522 0.19032288
144800000000 -0.2931881 -0.12942049 -0.13431084 3.1397579 -5.7911919e-05 -2.6966994e-05 -0.054807246 0.19351739
144866666666.67 -0.30225846 -0.10570854 0.18919194 3.1826708 -6.6557594e-05 2.3115172e-07 -0.037179705 0.19547378
144933333333.33 -0.31060037 -0.074649364 0.51944286 3.1620634 -5.9460908e-05 3.6387701e-06 -0.018591601 0.19519259
145000000000 -0.3167901 -0.053043678 0.83286762 3.0998871 -6.6835375e-05 -1.2462477e-05 -0.0007481724 0.19312349
145066666666.67 -0.32063764 -0.023517258 1.1611379 3.0250273 -6.1668557e-05 5.6564572e-06 0.016892716 0.18921494
145133333333.33 -0.3218042 0.0053482801 1.4751468 2.9144812 -7.7156546e-05 1.485666e-05 0.033754643 0.18492818
145200000000 -0.31984118 0.03484647 1.7655895 2.7770667 -6.8883193e-05 1.4742225e-05 0.05028474 0.17825061
145266666666.67 -0.31500348 0.060217619 2.057265 2.6177428 -5.5853208e-05 3.7573336e-05 0.066562235 0.17009293
145333333333.33 -0.30832618 0.088997722 2.3271852 2.4080727 -4.4499116e-05 1.9922963e-05 0.081174433 0.16024733
145400000000 -0.29746786 0.11528907 2.5749531 2.1706486 -6.3935418e-05 1.4652723e-05 0.094981365 0.1495367
145466666666.67 -0.28801715 0.13796899 2.8107207 1.9168843 -5.5939465e-05 3.3817221e-05 0.1071506 0.13762647
145533333333.33 -0.27462342 0.16468388 2.9953451 1.6539681 -5.4315577e-05 3.5767949e-05 0.11840825 0.12438818
145600000000 -0.25923574 0.18862489 3.1818404 1.3533232 -5.060295e-05 5.9191974e-05 0.12914418 0.11059213
145666666666.67 -0.24152505 0.20780292 3.3141055 1.0398208 -3.6933823e-05 7.8891586e-05 0.13719939 0.095919728
145733333333.33 -0.22149266 0.23016363 3.4242303 0.70422924 -4.5203626e-05 6.1602877e-05 0.14428943 0.080356821
145800000000 -0.20395193 0.24577437 3.5190034 0.37171233 -3.252329e-05 4.8400925e-05 0.15048976 0.065406382
145866666666.67 -0.17934017 0.26178989 3.5668547 0.043322206 4.6853929e-06 6.4658263e-05 0.15468198 0.049001161
145933333333.33 -0.15661563 0.27729589 3.5728028 -0.3416394 -4.3168293e-06 6.5261411e-05 0.15811968 0.03199086
146000000000 -0.13212922 0.28986123 3.5574052 -0.70371193 -3.3057354e-06 7.227093e-05 0.15998524 0.015778314
146066666666.67 -0.10362867 0.29493827 3.4805758 -1.0676599 -6.1985083e-06 8.1550628e-05 0.15904178 -0.00081994385
146133333333.33 -0.077426247 0.30563942 3.3940732 -1.4166535 -2.1351963e-05 7.5632634e-05 0.15714204 -0.017978607
146200000000 -0.049969152 0.30858538 3.2593577 -1.78159 9.3633389e-06 5.3832457e-05 0.153877 -0.033869188
146266666666.67 -0.023967043 0.31311429 3.086483 -2.103663 2.2077955e-05 6.7001354e-05 0.14947401 -0.049255408
146333333333.33 0.0023768768 0.31032723 2.8937154 -2.4063358 1.106629e-05 6.2446714e-05 0.14362997 -0.064195812
146400000000 0.031468987 0.30791342 2.6412382 -2.7059555 3.1512391e-05 6.2267602e-05 0.13524435 -0.079175189
146466666666.67 0.05767278 0.30335915 2.423079 -2.9642687 3.5193625e-05 6.3094667e-05 0.12732628 -0.09260156
146533333333.33 0.084665522 0.29616264 2.1125205 -3.2283986 4.3757245e-05 5.925999e-05 0.1180093 -0.10613282
146600000000 0.10780932 0.28784975 1.8216925 -3.4592304 4.4205688e-05 6.3882486e-05 0.10586023 -0.1187994
146666666666.67 0.13346627 0.27263021 1.4727116 -3.6361489 5.0299925e-05 7.463216e-05 0.093757719 -0.12905632
146733333333.33 0.15577087 0.25980037 1.1113671 -3.7949975 4.3348839e-05 4.9061255e-05 0.08025609 -0.1392061
146800000000 0.1784478 0.24259509 0.72312462 -3.9283683 4.4194283e-05 2.5744648e-05 0.066496074 -0.14783329
146866666666.67 0.19926839 0.22386314 0.33457679 -4.0063791 6.7969195e-05 2.3225708e-05 0.052129999 -0.15471736
146933333333.33 0.21652868 0.20414877 -0.050199747 -4.0456767 6.201346e-05 2.5942121e-05 0.037060477 -0.16081128
147000000000 0.23481905 0.18115017 -0.46765757 -4.0536699 6.4242027e-05 2.2247508e-05 0.020879559 -0.1652303
147066666666.67 0.24971215 0.16029499 -0.86492032 -4.015101 7.719166e-05 1.4465983e-05 0.0054994375 -0.16805166
147133333333.33 0.26287887 0.13350153 -1.2684624 -3.947207 6.8476766e-05 -3.6636084e-07 -0.010431305 -0.17009448
147200000000 0.26972735 0.10601188 -1.6738513 -3.8263175 6.0017068e-05 1.0685108e-06 -0.027124714 -0.17093363
147266666666.67 0.28071949 0.082129069 -2.0481524 -3.6819768 6.1357729e-05 -3.7391321e-05 -0.043003988 -0.16947088
147333333333.33 0.28221548 0.053987511 -2.4442511 -3.4870543 5.7373396e-05 -1.7879751e-05 -0.059395976 -0.16794427
147400000000 0.28667274 0.027845085 -2.7935727 -3.2372465 7.5739554e-05 -2.5373778e-05 -0.074914679 -0.16346976
147466666666.67 0.28466576 0.0018720552 -3.1237082 -2.9829335 7.3656556e-05 -3.6590947e-05 -0.090655953 -0.15924415
147533333333.33 0.2807107 -0.027210027 -3.425344 -2.6553557 5.1335577e-05 -3.1150477e-05 -0.1053257 -0.15235071
147600000000 0.27412063 -0.053769015 -3.7117205 -2.3105559 6.314426e-05 -3.2464002e-05 -0.12003645 -0.14422528
147666666666.67 0.26766956 -0.079421051 -3.9297621 -1.9637284 5.1450661e-05 -5.2015006e-05 -0.13356927 -0.13541879
147733333333.33 0.25828418 -0.10667505 -4.139349 -1.5617657 5.9545237e-05 -3.6937174e-05 -0.14634535 -0.12533261
147800000000 0.24426739 -0.12974475 -4.2902274 -1.1662983 5.1312159e-05 -4.5351644e-05 -0.15811381 -0.11393715
147866666666.67 0.23073827 -0.15450118 -4.427597 -0.7469337 6.3649051e-05 -4.5495904e-05 -0.16916102 -0.10219215
147933333333.33 0.21003035 -0.17065626 -4.4930806 -0.31943506 3.2639266e-05 -5.9333615e-05 -0.17942801 -0.089033023
148000000000 0.19306843 -0.19272847 -4.5359602 0.11414838 3.7955579e-05 -5.8371144e-05 -0.18722346 -0.075361893
148066666666.67 0.17316853 -0.21052909 -4.5441513 0.58271056 3.2997334e-05 -5.4630786e-05 -0.19571435 -0.06080243
148133333333.33 0.14625818 -0.2257238 -4.4785447 1.0392228 2.2904929e-05 -3.7349091e-05 -0.20282313 -0.045978427
148200000000 0.12392879 -0.24228124 -4.3824134 1.4887643 4.6990888e-05 -7.7048004e-05 -0.20804974 -0.03044856
148266666666.67 0.099100769 -0.2525571 -4.221271 1.9456754 1.4339876e-05 -6.8090259e-05 -0.21201017 -0.014460847
148333333333.33 0.074735194 -0.2586422 -4.0314054 2.3626411 1.3825724e-05 -6.9517613e-05 -0.21524425 0.0015245369
148400000000 0.04713802 -0.2649239 -3.8217282 2.767962 3.1515829e-06 -5.7565485e-05 -0.21748033 0.018055998
148466666666.67 0.021344684 -0.27144155 -3.5474401 3.1467547 -2.1085998e-05 -6.3914442e-05 -0.21760964 0.034687873
148533333333.33 -0.012214262 -0.26995051 -3.1544378 3.5563693 -2.8958826e-05 -6.4375927e-05 -0.21637388 0.052281361
148600000000 -0.036506437 -0.26601493 -2.8654675 3.8377419 -1.0306232e-05 -7.0294598e-05 -0.21405558 0.068676472
148666666666.67 -0.061964277 -0.26418388 -2.5028968 4.1124144 -1.1738899e-05 -4.5742003e-05 -0.21004085 0.083904967
148733333333.33 -0.090367764 -0.25653046 -2.0645425 4.3625512 -2.3406716e-05 -4.9499886e-05 -0.2049351 0.099829495
148800000000 -0.11493974 -0.247835 -1.6487471 4.5741954 -1.7953607e-05 -3.9656981e-05 -0.19867194 0.11549814
148866666666.67 -0.14107692 -0.23708725 -1.2141125 4.7378316 -4.200299e-05 -5.6756417e-05 -0.19169647 0.12995674
148933333333.33 -0.16452613 -0.22414365 -0.74030161 4.8596673 -4.769706e-05 -4.820016e-05 -0.1829329 0.14389585
149000000000 -0.18863384 -0.20711845 -0.25699806 4.9352493 -2.5185898e-05 -5.4772263e-05 -0.17354268 0.157612
149066666666.67 -0.20864624 -0.19143662 0.21133614 4.9829478 -5.7701131e-05 -3.4858811e-05 -0.16362783 0.16945626
149133333333.33 -0.22806144 -0.16990291 0.70995843 4.9571519 -4.7552312e-05 -1.353683e-05 -0.15253086 0.18187597
149200000000 -0.24282332 -0.14952023 1.2029232 4.8774939 -4.85688e-05 -4.6190195e-05 -0.13956645 0.19255438
149266666666.67 -0.26087731 -0.12589869 1.6714307 4.7721081 -5.692702e-05 -2.6251655e-05 -0.12638888 0.20266601
149333333333.33 -0.27292505 -0.10114913 2.1390817 4.6026335 -4.6120207e-05 -9.5849573e-06 -0.11338239 0.21141437
149400000000 -0.28406367 -0.075515755 2.5968845 4.4052134 -5.1437342e-05 2.1486048e-05 -0.098698713 0.21967727
149466666666.67 -0.29546767 -0.047265925 3.0217078 4.144105 -6.0481532e-05 -2.1524853e-05 -0.084383331 0.22644237
149533333333.33 -0.30397516 -0.021612205 3.4277029 3.8522019 -5.7410594e-05 -3.2211992e-06 -0.069130875 0.23304206
149600000000 -0.30382016 0.0068745762 3.8169477 3.5261745 -8.0006925e-05 5.6218378e-06 -0.052672498 0.23711208
149666666666.67 -0.30570987 0.034824371 4.1673083 3.1395814 -6.2692729e-05 6.9832149e-06 -0.036702812 0.23990139
149733333333.33 -0.3065457 0.063209504 4.4764609 2.760534 -7.0624716e-05 -1.4381294e-06 -0.02102343 0.24244268
149800000000 -0.30170429 0.094048709 4.8097372 2.1789691 -4.0110448e-05 1.5893624e-05 -0.0018964186 0.24433091
149866666666.67 -0.29849476 0.11818818 4.9660873 1.8754046 -4.6543446e-05 4.751013e-06 0.010674993 0.24385935
149933333333.33 -0.29070032 0.14590889 5.1416788 1.4051832 -7.1779206e-05 3.2063537e-05 0.026540004 0.24285348
150000000000 -0.27941123 0.17002982 5.2862625 0.92274368 -3.8017231e-05 1.2863908e-05 0.042199977 0.23999861
150066666666.67 -0.2660777 0.19676556 5.3834758 0.38000119 -5.5980374e-05 1.6396412e-05 0.057878301 0.23658894
150133333333.33 -0.25311562 0.22041199 5.4179959 -0.10829234 -6.0922466e-05 3.7155347e-05 0.072771981 0.2320001
150200000000 -0.23630309 0.24128094 5.4178915 -0.64267182 -4.4808723e-05 3.3450255e-05 0.086963654 0.22667201
150266666666.67 -0.21624877 0.26270473 5.3688054 -1.1470752 -3.5709403e-05 2.6031154e-05 0.10107641 0.22022498
150333333333.33 -0.19641964 0.28289831 5.2454672 -1.680866 -5.2305877e-05 6.7008186e-06 0.11559109 0.21300879
150400000000 -0.17429586 0.30327764 5.1144199 -2.2069864 -3.4781118e-05 3.1922922e-05 0.12891597 0.20402773
150466666666.67 -0.15292031 0.31904486 4.909718 -2.6866329 -3.8542024e-05 2.3738254e-05 0.14048854 0.19479635
150533333333.33 -0.12765591 0.33422369 4.6487389 -3.1678257 -4.6381512e-05 4.9450347e-05 0.15179728 0.18502308
150600000000 -0.099678122 0.34417102 4.3365202 -3.6302295 -1.7211176e-05 4.1214375e-05 0.16335237 0.17347212
150666666666.67 -0.069508992 0.35793462 4.0006752 -4.0560122 -1.7583872e-05 4.4516601e-05 0.1730254 0.16156355
150733333333.33 -0.045070976 0.36532432 3.6235716 -4.4373193 -1.8618241e-05 4.9370836e-05 0.18222401 0.15016803
150800000000 -0.0149641 0.3715834 3.1994352 -4.798214 -1.5925198e-05 5.9547856e-05 0.19058459 0.13694644
150866666666.67 0.013639346 0.37307435 2.7402575 -5.1290927 -8.5129104e-06 6.5794571e-05 0.19816929 0.12398437
150933333333.33 0.042740725 0.37317756 2.2408864 -5.3910909 -1.5099281e-05 4.8003836e-05 0.20389961 0.10980861
151000000000 0.074979626 0.37446517 1.7320632 -5.6245708 1.7251477e-05 5.1535211e-05 0.20915338 0.095668346
151066666666.67 0.10195141 0.36829978 1.1762114 -5.7852116 2.5021658e-05 4.6272475e-05 0.21360761 0.08224196
151133333333.33 0.12998812 0.3610543 0.63345337 -5.9305091 -1.5395921e-05 4.8135364e-05 0.21685387 0.068242863
151200000000 0.15827553 0.35568339 0.084125042 -6.0168619 2.5109299e-05 6.9782385e-05 0.21911363 0.053831033
151266666666.67 0.18763837 0.34336424 -0.51193476 -6.0202198 2.0146526e-05 4.7788933e-05 0.22065648 0.038969662
151333333333.33 0.21272379 0.33298254 -1.0870384 -6.0012436 3.04363e-05 5.3835349e-05 0.2208243 0.024029728
151400000000 0.23897578 0.31732506 -1.6702338 -5.9016738 4.522963e-05 3.6225068e-05 0.22041836 0.009816967
151466666666.67 0.26389176 0.29533267 -2.2346468 -5.7444687 1.4531616e-05 4.9261842e-05 0.21854278 -0.0041185431
151533333333.33 0.28755879 0.27425432 -2.8189478 -5.5345783 2.6337384e-05 7.8619771e-05 0.21606353 -0.018232189
151600000000 0.30529279 0.25381589 -3.348376 -5.2829661 5.8315552e-05 2.391023e-05 0.21261124 -0.031551354
151666666666.67 0.32670474 0.2355421 -3.8542836 -4.9838128 5.9617385e-05 3.3099579e-05 0.20802984 -0.04455287
151733333333.33 0.34238237 0.21240364 -4.3447781 -4.6356077 4.0266135e-05 1.5603227e-05 0.20303895 -0.057817709
151800000000 0.35737324 0.18776563 -4.8113084 -4.243341 4.2318781e-05 4.3943775e-05 0.19768074 -0.068705313
151866666666.67 0.36992127 0.16151474 -5.1954527 -3.7867341 3.2354652e-05 3.6379271e-05 0.19032572 -0.080998734
151933333333.33 0.38436601 0.12832153 -5.6053667 -3.2834926 4.6605724e-05 3.9395789e-05 0.18301632 -0.091510773
152000000000 0.39279035 0.09998624 -5.9252591 -2.7612233 8.3524763e-05 1.4986757e-05 0.17469528 -0.10197742
152066666666.67 0.3973003 0.073277041 -6.1948347 -2.1896715 7.1570546e-05 7.3891806e-06 0.16568823 -0.11204751
152133333333.33 0.40457112 0.040662937 -6.4127989 -1.5929947 6.3541884e-05 1.6963366e-05 0.15574184 -0.12105139
152200000000 0.4049719 0.010819227 -6.5929213 -0.98074841 5.1373514e-05 9.8239998e-06 0.14625065 -0.12952395
152266666666.67 0.40882081 -0.018795714 -6.7040143 -0.32951021 4.3807504e-05 -1.4437463e-05 0.1351469 -0.13718444
152333333333.33 0.40059683 -0.048413381 -6.7320476 0.30459201 5.2997995e-05 -1.4927464e-05 0.12482977 -0.14371601
152400000000 0.39635137 -0.076254621 -6.7323728 0.93571901 4.6660585e-05 -1.4427022e-05 0.1134849 -0.15041341
152466666666.67 0.38952041 -0.10683225 -6.6596608 1.5988379 6.9707086e-05 -1.486523e-05 0.10184041 -0.15534425
152533333333.33 0.37792289 -0.13376957 -6.5010824 2.2770319 5.8173111e-05 -2.0034375e-05 0.090488404 -0.15925509
152600000000 0.36649847 -0.1601173 -6.3265772 2.8913548 7.1989671e-05 -3.2609078e-05 0.07821776 -0.16292463
152666666666.67 0.35218933 -0.1888601 -6.0581398 3.5110469 5.6986206e-05 -2.5403544e-05 0.067212164 -0.16472942
152733333333.33 0.33781067 -0.21336038 -5.7380085 4.1098647 4.7168513e-05 -1.4975446e-05 0.055381916 -0.16687906
152800000000 0.32000738 -0.23573366 -5.3377509 4.7071347 8.2340928e-05 -3.1907261e-05 0.043418758 -0.16832286
152866666666.67 0.29968324 -0.26098472 -4.9202051 5.2114086 4.081268e-05 -2.4375151e-05 0.031625386 -0.16772196
152933333333.33 0.27909553 -0.28235108 -4.4058385 5.7166619 6.687695e-05 -8.4723477e-05 0.020115688 -0.16732785
153000000000 0.25555998 -0.29834253 -3.880249 6.1392651 3.1730546e-05 -7.1136339e-05 0.0091241226 -0.16562296
153066666666.67 0.23317531 -0.31208861 -3.2936492 6.5206118 5.9816739e-05 -8.5566011e-05 -0.0021937098 -0.16414368
153133333333.33 0.20470224 -0.32857868 -2.6685443 6.8553329 2.784879e-05 -8.7461129e-05 -0.012204431 -0.16098608
153200000000 0.17904392 -0.34292054 -2.0026937 7.1366448 2.8157236e-05 -0.00010453109 -0.022998013 -0.15738836
153266666666.67 0.1507819 -0.35430688 -1.3246644 7.377964 2.405333e-05 -6.9292204e-05 -0.033325374 -0.15361048
153333333333.33 0.12133753 -0.36007333 -0.61332905 7.4997849 3.815215e-05 -7.8421734e-05 -0.043250456 -0.14832684
153400000000 0.093511023 -0.36629015 0.083069205 7.5862746 1.4103404e-05 -0.00010964352 -0.052767124 -0.14300159
153466666666.67 0.06229125 -0.37408978 0.81713271 7.6203971 2.2570332e-05 -8.8094814e-05 -0.061346803 -0.13632576
153533333333.33 0.038406298 -0.37200242 1.5406206 7.5446672 6.1394712e-07 -6.9846777e-05 -0.069634147 -0.12970448
153600000000 0.0092941038 -0.3712146 2.2938492 7.4157262 -8.6743357e-06 -0.00010277574 -0.077595763 -0.12162299
153666666666.67 -0.023179904 -0.36641437 3.0401089 7.1868753 -8.265346e-06 -9.1372669e-05 -0.084449232 -0.11390187
153733333333.33 -0.051785573 -0.35996306 3.7448914 6.9196701 -3.3298777e-05 -5.8247377e-05 -0.090333566 -0.10621349
153800000000 -0.075849384 -0.35441494 4.4295812 6.5587869 -3.7716349e-05 -9.960169e-05 -0.095367797 -0.097787403
153866666666.67 -0.10510778 -0.34100741 5.0973873 6.1404858 -3.8092472e-05 -7.551079e-05 -0.1010844 -0.089724474
153933333333.33 -0.12981585 -0.32853532 5.6956172 5.6593218 -6.2239764e-05 -9.5576397e-05 -0.10535209 -0.081152789
154000000000 -0.15526217 -0.3149026 6.3026681 5.1480699 -7.7711731e-05 -7.5039949e-05 -0.10960929 -0.071895778
154066666666.67 -0.17730622 -0.30203736 6.785861 4.5716281 -6.5933978e-05 -8.0052036e-05 -0.1119003 -0.062759325
154133333333.33 -0.19906498 -0.28272447 7.2592793 3.9324889 -9.7326185e-05 -6.2094834e-05 -0.11481463 -0.053548444
154200000000 -0.21971253 -0.2622216 7.6211386 3.2238581 -0.00011450381 -6.610815e-05 -0.11621031 -0.044181835
154266666666.67 -0.23567545 -0.24380064 7.9738312 2.5521617 -0.00011161365 -5.5003584e-05 -0.11781476 -0.035241581
154333333333.33 -0.25418293 -0.22041124 8.2430658 1.7558286 -9.2676972e-05 -4.1856256e-05 -0.11808094 -0.025841
154400000000 -0.26893234 -0.19728312 8.4299936 0.9201498 -9.3242095e-05 -2.5232737e-05 -0.11805089 -0.016550586
154466666666.67 -0.28185356 -0.17121617 8.5519066 0.11303151 -0.00012915011 -1.5883226e-05 -0.11726367 -0.0075483359
154533333333.33 -0.2923983 -0.14630631 8.5986795 -0.77157259 -0.00011883249 6.6886569e-06 -0.11525606 0.0016147606
154600000000 -0.29878247 -0.11790176 8.466733 -1.5642958 -0.00012196616 7.0069545e-06 -0.11293382 0.010125069
154666666666.67 -0.30622205 -0.090848014 8.3997993 -2.3839245 -0.00011255224 1.9331161e-05 -0.11021212 0.018665988
154733333333.33 -0.30816019 -0.063331664 8.1515903 -3.2334387 -0.00011837162 3.4059554e-05 -0.10622111 0.026937418
154800000000 -0.31192121 -0.036830157 7.8383255 -4.0843539 -0.00011257126 3.7811646e-05 -0.10220785 0.03421212
154866666666.67 -0.309598 -0.011574186 7.4812813 -4.8110447 -0.00010428762 5.4484659e-05 -0.097749382 0.042033561
154933333333.33 -0.30567887 0.015814438 7.0214405 -5.551517 -0.00012489701 5.8856091e-05 -0.092624277 0.048743192
155000000000 -0.29941505 0.041701883 6.5239573 -6.270721 -0.00010029737 7.2381023e-05 -0.087106764 0.054964446
155066666666.67 -0.29287022 0.068036638 5.9134007 -6.9091244 -9.057072e-05 7.6887089e-05 -0.081011362 0.060816467
155133333333.33 -0.28351885 0.088900156 5.2590518 -7.4884486 -8.1321785e-05 9.4120929e-05 -0.074969113 0.066156268
155200000000 -0.27056777 0.11604014 4.4942555 -8.0318308 -8.5927823e-05 0.00012413261 -0.068141662 0.071272098
155266666666.67 -0.25602272 0.13489369 3.7501166 -8.4739695 -6.2336389e-05 0.00011945301 -0.061460719 0.075364158
155333333333.33 -0.24302745 0.15739059 2.9138446 -8.8653555 -4.6810579e-05 0.00011905949 -0.054462507 0.079321221
155400000000 -0.22393672 0.17741781 2.0078197 -9.1731453 -4.1688199e-05 0.0001271856 -0.047121041 0.082851268
155466666666.67 -0.20799918 0.19483882 1.1495254 -9.381115 -2.7036258e-05 0.00012390148 -0.039771095 0.085631602
155533333333.33 -0.18928193 0.21030898 0.24551201 -9.5170879 -2.810391e-05 0.00013811367 -0.032529071 0.088170007
155600000000 -0.16729011 0.22394842 -0.71709919 -9.5413885 -1.6520818e-05 0.00013218998 -0.02419674 0.089984044
155666666666.67 -0.14673178 0.23788662 -1.6478961 -9.4724493 1.2783068e-05 0.00011977941 -0.01630572 0.091399893
155733333333.33 -0.12299841 0.24764529 -2.5441642 -9.3398581 2.3389319e-05 0.00011661377 -0.0083130337 0.092031538
155800000000 -0.098702863 0.25602576 -3.4995606 -9.0595293 4.5951339e-05 0.00013082761 2.0833686e-06 0.091550753
155866666666.67 -0.075662591 0.26366553 -4.3965673 -8.7578011 6.3199026e-05 0.00012043225 0.0082941689 0.091487236
155933333333.33 -0.052176155 0.26725122 -5.2362313 -8.3433771 5.9756694e-05 0.00012007992 0.016025964 0.090346605
156000000000 -0.026328653 0.26910841 -6.0531731 -7.849196 6.0316128e-05 0.00011660319 0.02392805 0.08799009
156066666666.67 -0.0014321357 0.26943728 -6.8219099 -7.2475657 9.3783492e-05 0.00012141617 0.031616885 0.085512556
156133333333.33 0.022454061 0.26614833 -7.5761795 -6.5624523 0.00011346228 7.8573066e-05 0.039039001 0.082188375
156200000000 0.04550083 0.26164159 -8.2272816 -5.8628092 0.00011346323 7.44887e-05 0.045985088 0.078460291
156266666666.67 0.068835303 0.25661206 -8.7901335 -5.0512347 0.00012475498 7.1688468e-05 0.052582808 0.074288212
156333333333.33 0.092380106 0.24593976 -9.3020153 -4.1270132 0.00011186478 4.8459311e-05 0.059184648 0.069604754
156400000000 0.11279262 0.23678255 -9.6878557 -3.2058434 0.0001290582 4.2006843e-05 0.065089449 0.064517066
156466666666.67 0.1326851 0.22365236 -10.024152 -2.3303528 0.00011485214 3.3334229e-05 0.070834324 0.059133291
156533333333.33 0.1539901 0.21078029 -10.261943 -1.315897 0.0001451612 1.4869354e-05 0.076288968 0.052947365
156600000000 0.17102782 0.1937865 -10.371367 -0.32528949 0.00012221787 1.2163036e-05 0.081202492 0.046590507
156666666666.67 0.18689632 0.17802772 -10.399452 0.64836812 0.00011606969 -3.3399028e-06 0.085544258 0.039924659
156733333333.33 0.20195173 0.16371661 -10.343611 1.6853137 9.8726159e-05 -1.6376871e-05 0.089792438 0.032948773
156800000000 0.21592383 0.14197756 -10.172278 2.7078822 0.00013306495 -3.6100217e-05 0.093637161 0.025480784
156866666666.67 0.22852534 0.12367295 -9.892127 3.717133 0.00012468043 -4.6392601e-05 0.09645091 0.017579297
156933333333.33 0.23738214 0.10191894 -9.5215626 4.7016673 9.7616961e-05 -5.6097877e-05 0.098888278 0.0095481277
157000000000 0.24543826 0.078870669 -9.0985212 5.5582528 8.3407132e-05 -8.6232358e-05 0.1008707 0.0017388391
157066666666.67 0.25095451 0.057829559 -8.5625877 6.4643726 9.4284529e-05 -7.8913246e-05 0.10232332 -0.0068775006
157133333333.33 0.25604171 0.036275096 -7.9142308 7.3085442 8.9019421e-05 -0.00010139772 0.10258427 -0.015867457
157200000000 0.25678188 0.014741093 -7.159863 8.09161 8.7855602e-05 -9.6079806e-05 0.1025605 -0.024742253
157266666666.67 0.25780573 -0.009218201 -6.411797 8.7388754 4.8483686e-05 -9.1555819e-05 0.10163048 -0.03348314
157333333333.33 0.2559914 -0.030905724 -5.554266 9.3553791 5.2782263e-05 -0.0001054196 0.099926703 -0.042241976
157400000000 0.25139278 -0.052929848 -4.6073427 9.8966694 2.5479596e-05 -0.00013602889 0.097835153 -0.05073227
157466666666.67 0.24520412 -0.074436903 -3.6001959 10.352767 4.2193577e-05 -0.00011683889 0.095199473 -0.058881801
157533333333.33 0.23672937 -0.096081764 -2.5898666 10.720508 8.6439104e-06 -0.00012858232 0.091818593 -0.066955924
157600000000 0.22917862 -0.11398271 -1.595602 10.951241 1.294797e-05 -0.00013690704 0.08824525 -0.074685976
157666666666.67 0.21988311 -0.1319588 -0.49777061 11.077379 -1.2591663e-05 -0.00012357635 0.083832562 -0.082362697
157733333333.33 0.20594937 -0.1528742 0.58250856 11.129468 -1.2554199e-05 -0.0001075842 0.07852006 -0.089612976
157800000000 0.19360682 -0.16903174 1.6520796 11.056505 -3.0268384e-05 -0.00010041495 0.072782919 -0.096854508
157866666666.67 0.17921257 -0.18484412 2.6843815 10.884786 -2.3986033e-05 -0.00010021953 0.066493168 -0.10327969
157933333333.33 0.16213539 -0.19644895 3.7205615 10.599956 -3.5580004e-05 -0.00010541209 0.059701983 -0.10987149
158000000000 0.1454152 -0.20904417 4.7715979 10.248861 -6.2760926e-05 -0.00010142747 0.052797161 -0.11583046
158066666666.67 0.13025491 -0.22206163 5.7537403 9.7721176 -6.8963491e-05 -8.7985725e-05 0.045410927 -0.1210212
158133333333.33 0.10879993 -0.23124593 6.6822968 9.1749849 -6.890342e-05 -8.6878696e-05 0.036868133 -0.12626261
158200000000 0.090479523 -0.23748849 7.5763483 8.5066862 -0.00011216399 -8.0497397e-05 0.028067518 -0.1306143
158266666666.67 0.070143789 -0.24482913 8.4057636 7.7617302 -0.00010277442 -7.2006565e-05 0.018764041 -0.13449684
158333333333.33 0.05061356 -0.24971634 9.1516552 6.9396949 -0.00010734755 -6.4135194e-05 0.0093662329 -0.13746032
158400000000 0.028742423 -0.25545111 9.7804642 6.0476856 -0.00010182621 -4.653932e-05 -6.8295747e-05 -0.13987122
158466666666.67 0.010856442 -0.25654098 10.354452 5.1453047 -9.1515583e-05 -3.7859041e-05 -0.0097135454 -0.14168458
158533333333.33 -0.010221653 -0.25511017 10.807941 4.1261368 -8.3840132e-05 -1.0489965e-05 -0.019967914 -0.14275286
158600000000 -0.031495169 -0.25431672 11.229632 3.0475249 -9.7769596e-05 -5.9310714e-06 -0.030062366 -0.14291617
158666666666.67 -0.050259732 -0.24958098 11.471792 1.9253745 -0.00011718578 8.961917e-06 -0.040231481 -0.14264454
158733333333.33 -0.068924896 -0.24593759 11.670033 0.85997808 -0.00012216599 1.1788763e-05 -0.04992187 -0.14129739
158800000000 -0.088093124 -0.23731644 11.728025 -0.2724843 -0.00011095216 -5.2812902e-06 -0.059989244 -0.13982473
158866666666.67 -0.10821757 -0.22898717 11.667457 -1.3485539 -9.5481344e-05 2.9166116e-05 -0.069452778 -0.13719445
158933333333.33 -0.12401929 -0.223416 11.527528 -2.4857223 -8.8615125e-05 6.6729503e-05 -0.079175331 -0.13393451
159000000000 -0.14032149 -0.21088955 11.242657 -3.6121178 -8.5600601e-05 5.7689169e-05 -0.089244336 -0.12967628
159066666666.67 -0.15500176 -0.20022738 10.905991 -4.6718826 -7.4638949e-05 6.7173052e-05 -0.098339505 -0.12528253
159133333333.33 -0.16986088 -0.18714346 10.446933 -5.684752 -9.3815499e-05 2.2683827e-05 -0.10728326 -0.1200458
159200000000 -0.18209693 -0.1762678 9.9239225 -6.6515613 -4.8710859e-05 5.1588504e-05 -0.11619167 -0.11411487
159266666666.67 -0.19407335 -0.15995055 9.2521076 -7.5920439 -8.0897647e-05 8.6474902e-05 -0.12443632 -0.10717399
159333333333.33 -0.20555826 -0.14203161 8.4830904 -8.4792757 -3.9554321e-05 9.3340219e-05 -0.13257134 -0.10038078
159400000000 -0.21723473 -0.12658982 7.6322079 -9.2866192 -4.5498848e-05 8.3288542e-05 -0.14018071 -0.092169181
159466666666.67 -0.2238328 -0.10998541 6.7649503 -10.013185 -3.8971528e-05 7.7552024e-05 -0.14727028 -0.083683252
159533333333.33 -0.2300064 -0.093873113 5.7762823 -10.606335 -3.1462827e-05 6.9651338e-05 -0.15371767 -0.074799746
159600000000 -0.23574865 -0.074451223 4.7957058 -11.153068 -3.715733e-05 9.1337672e-05 -0.15958726 -0.065622561
159666666666.67 -0.24060595 -0.057163306 3.7343695 -11.564541 -1.4389723e-05 9.9738601e-05 -0.16420712 -0.055965293
159733333333.33 -0.24473718 -0.038106062 2.5766819 -11.956182 -6.1644314e-06 9.099656e-05 -0.16919366 -0.04511705
159800000000 -0.24425694 -0.019262467 1.447722 -12.147537 1.7557963e-05 8.5817119e-05 -0.17263918 -0.034421951
159866666666.67 -0.24508935 -0.0034803152 0.30250311 -12.258139 7.9597703e-06 0.00010159338 -0.1757088 -0.02429954
159933333333.33 -0.24320956 0.015805891 -0.90239787 -12.268779 3.4162516e-05 7.5268181e-05 -0.17804396 -0.013051555
160000000000 -0.24013022 0.031488597 -2.0118077 -12.200332 5.95028e-06 6.516093e-05 -0.17945766 -0.0021250546
160066666666.67 -0.23762614 0.0504665 -3.2004454 -11.996522 1.1860295e-05 5.5790955e-05 -0.18036872 0.0097905546
160133333333.33 -0.23047224 0.066997461 -4.340343 -11.655325 1.4178741e-05 6.2583058e-05 -0.18038771 0.020804394
160200000000 -0.22413763 0.083392583 -5.4357939 -11.267355 2.4911214e-05 7.3797142e-05 -0.1796433 0.03231471
160266666666.67 -0.21761383 0.098558009 -6.5196648 -10.709082 5.8752281e-05 5.2775416e-05 -0.17804168 0.04318653
160333333333.33 -0.20908195 0.11269449 -7.5272226 -10.042281 6.1696192e-05 5.7041198e-05 -0.17568171 0.054963723
160400000000 -0.19783229 0.12486548 -8.4024258 -9.3496075 4.3441218e-05 5.6849709e-05 -0.17277488 0.065302819
160466666666.67 -0.18679023 0.13992321 -9.3321457 -8.5508232 7.3426389e-05 6.405625e-05 -0.16900252 0.076398455
160533333333.33 -0.17635973 0.15157217 -10.152948 -7.5681915 7.7908146e-05 3.2555558e-06 -0.16418433 0.087346882
160600000000 -0.16431546 0.16064167 -10.831171 -6.622519 7.2912058e-05 5.0838153e-05 -0.15882835 0.097550586
160666666666.67 -0.14979483 0.17389208 -11.459845 -5.5725651 5.5881916e-05 1.4652356e-05 -0.15222839 0.10752094
160733333333.33 -0.13717531 0.17953175 -11.958732 -4.5085025 7.4502328e-05 6.8899021e-06 -0.14582862 0.11663406
160800000000 -0.12253119 0.18838096 -12.35158 -3.3830335 6.9241207e-05 2.5633321e-05 -0.13802202 0.12546031
160866666666.67 -0.10956888 0.19438034 -12.650602 -2.2331953 6.0999653e-05 1.8186167e-05 -0.12990323 0.13385722
160933333333.33 -0.092376105 0.20068476 -12.859375 -1.0040053 7.7754783e-05 -1.8904573e-06 -0.12099985 0.14194982
161000000000 -0.078467533 0.20364425 -12.934365 0.20504475 7.0567039e-05 -6.450171e-06 -0.11174901 0.14928994
161066666666.67 -0.06251841 0.2064182 -12.87602 1.4424081 4.008993e-05 -1.3401477e-05 -0.1018874 0.15572989
161133333333.33 -0.046675071 0.20793414 -12.730729 2.6436377 2.7021759e-05 -2.300969e-05 -0.09144859 0.16155589
161200000000 -0.030647527 0.20997846 -12.500117 3.8247986 7.7370241e-05 -1.1893038e-05 -0.081064388 0.16684924
161266666666.67 -0.016962446 0.20840251 -12.104823 5.0120068 5.7886922e-05 -3.5653997e-05 -0.070430189 0.17147702
161333333333.33 -0.0016798899 0.20479544 -11.606552 6.1590462 4.4915989e-05 -4.1420215e-05 -0.059190575 0.17514402
161400000000 0.013956536 0.20482552 -11.018086 7.2274904 2.9735867e-05 -3.7930946e-05 -0.047815915 0.1776534
161466666666.67 0.026928112 0.19992417 -10.291051 8.281064 4.5053202e-05 -4.5172768e-05 -0.036411725 0.18003005
161533333333.33 0.040958948 0.19584236 -9.5239439 9.249795 5.8253128e-05 -3.2706666e-05 -0.023952805 0.18152264
161600000000 0.053868756 0.18941993 -8.625514 10.127746 3.2565506e-05 -2.7440517e-05 -0.012461469 0.18206592
161666666666.67 0.066832386 0.18205975 -7.6124048 10.943008 2.2892968e-05 -3.3034587e-05 -0.0003156811 0.18146574
161733333333.33 0.077806771 0.17466772 -6.5815525 11.618204 1.9299776e-05 -5.4148673e-05 0.011420582 0.18032557
161800000000 0.088910058 0.16714433 -5.3852177 12.26304 4.5964414e-05 -4.14684e-05 0.023080669 0.17813878
161866666666.67 0.099929795 0.15746191 -4.2203832 12.766464 1.9833065e-05 -7.4947893e-05 0.034484256 0.17517337
161933333333.33 0.10688486 0.14617354 -3.0356565 13.103692 4.7622661e-06 -3.5654502e-05 0.045192294 0.17176194
162000000000 0.11683956 0.13794187 -1.7905946 13.431897 1.8582046e-05 -3.3017786e-05 0.056689288 0.16747192
162066666666.67 0.12336854 0.12747893 -0.47041178 13.559542 1.5590576e-05 -2.6193266e-05 0.06735386 0.1621134
162133333333.33 0.13086349 0.1162732 0.77200007 13.592518 -1.2938313e-05 -4.7643269e-05 0.077247158 0.15630755
162200000000 0.13631891 0.1063247 2.0610828 13.484056 2.8072709e-06 -3.5640995e-05 0.087062962 0.14938
162266666666.67 0.13995939 0.09269049 3.3674273 13.279823 -3.8218477e-06 -4.8087924e-05 0.095549382 0.14268169
162333333333.33 0.14333421 0.079997972 4.6000338 12.903419 -5.7632678e-06 -5.3911597e-05 0.10414618 0.13484703
162400000000 0.14451762 0.066854626 5.7943091 12.455625 -1.7236711e-05 -5.2323394e-05 0.11227294 0.12667933
162466666666.67 0.14684051 0.054918975 7.0160275 11.893334 -1.1365421e-05 -4.1451764e-05 0.12008606 0.11762629
162533333333.33 0.14601789 0.04285828 8.1049643 11.174537 -7.3167139e-06 -5.5206317e-05 0.12647079 0.10872676
162600000000 0.14696589 0.029365378 9.1389322 10.43336 1.3550471e-07 -3.4035576e-05 0.13260995 0.09923093
162666666666.67 0.14701594 0.019591235 10.062246 9.578476 -1.1136316e-05 -4.1716867e-05 0.13795862 0.088954546
162733333333.33 0.14383972 0.0066128895 10.980215 8.5435619 -3.4427314e-05 -4.0702882e-05 0.14269878 0.077645943
162800000000 0.14014275 -0.0028580427 11.743159 7.4972663 -3.1487954e-05 -7.9370702e-06 0.14641921 0.066898555
162866666666.67 0.13490258 -0.012751328 12.467357 6.310607 -1.4131598e-05 -1.083031e-05 0.1499535 0.055276401
162933333333.33 0.13039084 -0.02274289 13.032535 5.20119 -4.1343519e-05 -1.8420247e-05 0.15202591 0.04425567
163000000000 0.12635644 -0.032106072 13.503892 3.900178 -4.8834336e-05 -1.436224e-05 0.15374064 0.032867361
163066666666.67 0.12012874 -0.03990452 13.855307 2.6424198 -1.4308105e-05 -2.6215042e-05 0.15459475 0.021130236
163133333333.33 0.1145523 -0.050895389 14.088584 1.2295761 -2.0466339e-05 -2.2633396e-05 0.15425932 0.0094318874
163200000000 0.10827384 -0.056183256 14.144094 -0.089469433 -1.9782872e-05 -2.5747642e-05 0.15292484 -0.0019703582
163266666666.67 0.098820686 -0.064523801 14.106893 -1.3537192 -3.3202767e-05 1.2347235e-05 0.15122618 -0.012984235
163333333333.33 0.092160441 -0.070401207 13.970871 -2.684041 -3.5548601e-05 -1.8025723e-05 0.14860292 -0.024263041
163400000000 0.083718352 -0.075327531 13.625069 -4.0311956 -4.4383611e-05 1.2187955e-05 0.14502338 -0.034929268
163466666666.67 0.074812166 -0.078967519 13.217361 -5.3239837 -3.9450559e-05 -8.7308317e-06 0.14071241 -0.045483246
163533333333.33 0.063948639 -0.083896175 12.723053 -6.5532112 -3.8426333e-05 1.4385721e-05 0.1358256 -0.055931132
163600000000 0.056709494 -0.086866148 12.055496 -7.7336645 -3.3149106e-05 2.9858656e-06 0.13030159 -0.065649003
163666666666.67 0.047983401 -0.088761374 11.302181 -8.8745136 -5.2617233e-05 8.982639e-06 0.12444647 -0.074469775
163733333333.33 0.037895389 -0.089253716 10.41967 -9.9240627 -4.8387061e-05 6.8657951e-06 0.11704018 -0.083689399
163800000000 0.02930549 -0.089065455 9.4214659 -10.884764 -4.9099359e-05 5.602983e-06 0.10890687 -0.092338845
163866666666.67 0.020070022 -0.089950301 8.3576097 -11.774493 -1.7153361e-05 2.6904903e-05 0.10084312 -0.099907711
163933333333.33 0.012705538 -0.089889303 7.2422104 -12.534158 -4.2704407e-05 -1.1586038e-05 0.092491627 -0.10690533
164000000000 0.0020833062 -0.087541655 6.0533962 -13.172585 -3.0846873e-05 1.1856759e-05 0.083171912 -0.11336923
164066666666.67 -0.0056823045 -0.084151059 4.8225212 -13.697165 -3.1065352e-05 2.877396e-05 0.073458925 -0.11916368
164133333333.33 -0.012947598 -0.079933025 3.5675893 -14.081998 -1.6004353e-05 8.1951002e-06 0.063328385 -0.12389251
164200000000 -0.019684147 -0.076528877 2.2041304 -14.4111 -3.2975695e-05 1.0088743e-05 0.052757338 -0.12796457
164266666666.67 -0.025823366 -0.073262773 0.80780745 -14.577131 -4.5783803e-05 4.1320331e-05 0.042559929 -0.13127176
164333333333.33 -0.034300938 -0.069580987 -0.55214548 -14.617784 -3.4115124e-05 3.3833749e-05 0.031774495 -0.1337651
164400000000 -0.038439073 -0.063917018 -2.0114789 -14.520786 -2.7314491e-05 3.158841e-05 0.020510515 -0.13519576
164466666666.67 -0.0449453 -0.05678042 -3.3687978 -14.224174 -2.9271832e-05 2.9648088e-05 0.0089147054 -0.13550825
164533333333.33 -0.048510123 -0.052090604 -4.6251488 -13.895956 -2.244877e-05 4.8987258e-05 -0.0015278682 -0.1358117
164600000000 -0.052463468 -0.044156436 -5.9912405 -13.408018 -3.0015381e-06 5.6705372e-05 -0.012472225 -0.13526477
164666666666.67 -0.05653033 -0.037465382 -7.2547979 -12.786119 -1.823302e-05 4.6128152e-05 -0.02307979 -0.13354549
164733333333.33 -0.059267685 -0.033338472 -8.4241781 -12.092896 -8.4170188e-06 4.4995806e-05 -0.033425655 -0.13116784
164800000000 -0.061964452 -0.025836216 -9.5563364 -11.233408 9.8249693e-06 2.9917113e-05 -0.044030607 -0.12824586
164866666666.67 -0.062128816 -0.018567191 -10.590965 -10.286385 -4.5450147e-06 2.2830529e-05 -0.054110516 -0.12455849
164933333333.33 -0.064436883 -0.012276743 -11.49728 -9.288846 9.2003829e-06 4.1631705e-05 -0.063484661 -0.12023728
165000000000 -0.063714072 -0.00465082 -12.343302 -8.1557522 -1.2626145e-05 2.7655737e-05 -0.073085047 -0.11459296
165066666666.67 -0.062280152 6.8436377e-05 -13.081029 -6.9572706 6.1277574e-06 2.2292548e-05 -0.081835203 -0.10869563
165133333333.33 -0.061684586 0.006952839 -13.645632 -5.7354441 -1.3787399e-05 2.1139791e-05 -0.090068534 -0.10268287
165200000000 -0.060179867 0.013484509 -14.141397 -4.4376388 2.8682798e-05 2.3118242e-05 -0.097842917 -0.095353849
165266666666.67 -0.057058342 0.019921737 -14.506858 -3.1003895 6.743725e-06 3.1021606e-05 -0.10531196 -0.087512076
165333333333.33 -0.056648031 0.024893893 -14.734697 -1.7266388 2.4350884e-06 2.6821745e-05 -0.11228788 -0.078796983
165400000000 -0.053181935 0.029991837 -14.888195 -0.29888749 2.5856792e-05 1.511697e-05 -0.11857988 -0.070119187
165466666666.67 -0.049636416 0.03461358 -14.849327 1.0964069 3.7860322e-05 3.8012353e-05 -0.12346819 -0.061125249
165533333333.33 -0.045501567 0.038914733 -14.677437 2.4529629 4.2233143e-05 2.454409e-05 -0.12821753 -0.051794954
165600000000 -0.040313937 0.042517193 -14.409716 3.8085189 3.3530163e-05 5.4305829e-06 -0.13213868 -0.041681148
165666666666.67 -0.035299752 0.045781679 -13.938103 5.2337351 2.7301579e-05 5.5953387e-06 -0.13537833 -0.031500854
165733333333.33 -0.031609353 0.047965456 -13.388131 6.468224 2.694963e-05 1.1539757e-05 -0.13758132 -0.021218017
165800000000 -0.026407506 0.052065052 -12.774987 7.6664042 1.6906024e-05 2.2437071e-05 -0.13911535 -0.010948257
165866666666.67 -0.020493437 0.053139638 -11.980597 8.9185295 2.3972039e-05 5.9083122e-06 -0.13996539 -0.00060468912
165933333333.33 -0.016648807 0.055072606 -11.103573 9.9733477 6.2404295e-05 -1.365919e-05 -0.14008412 0.0097566694
166000000000 -0.01295589 0.055625662 -10.161568 10.923812 4.6185927e-05 2.1839393e-05 -0.13910946 0.019606818
166066666666.67 -0.0077079218 0.05556513 -9.071785 11.862118 3.8351751e-05 1.0835791e-05 -0.13771364 0.029989026
166133333333.33 -0.002169311 0.05672244 -7.9641957 12.634531 1.911326e-05 1.9434938e-05 -0.13545485 0.039665874
166200000000 0.0016448423 0.057375349 -6.7828765 13.348382 4.8374437e-05 -2.563851e-06 -0.13259134 0.049444482
166266666666.67 0.0063670799 0.055627309 -5.515336 13.947306 2.2150838e-05 -1.3140268e-05 -0.12915327 0.059347481
166333333333.33 0.012004285 0.052792184 -4.12535 14.422016 3.036741e-05 -2.8884873e-05 -0.12500307 0.068270512
166400000000 0.017114142 0.051005021 -2.7626243 14.772996 2.7652241e-05 -1.4143279e-05 -0.11999832 0.077470727
166466666666.67 0.020729141 0.050266579 -1.3224521 14.940202 2.3379138e-05 -2.1289899e-05 -0.11451705 0.085824095
166533333333.33 0.023803512 0.045274943 -0.021793842 14.980162 3.4604731e-05 -1.8834089e-05 -0.10893716 0.093278378
166600000000 0.029055538 0.041810162 1.3649368 14.928784 2.0088773e-05 -1.0182044e-05 -0.10204585 0.10126676
166666666666.67 0.03190776 0.038192853 2.812021 14.794005 1.7865068e-05 -3.1818032e-05 -0.094616815 0.10831147
166733333333.33 0.03467495 0.035976265 4.1148491 14.410507 1.5223639e-05 -2.2552838e-05 -0.087435059 0.11444966
166800000000 0.03534995 0.033215769 5.4720688 13.978172 3.9620563e-06 -5.7822956e-07 -0.078855194 0.12039959
166866666666.67 0.039796423 0.027487714 6.7750101 13.399121 -5.7275902e-06 -2.6033405e-05 -0.06982518 0.12517345
166933333333.33 0.039991055 0.023222256 8.0551043 12.700545 -2.1087972e-06 -4.0835861e-05 -0.060917899 0.12985672
167000000000 0.041582022 0.01816057 9.1237793 11.916603 3.5833846e-06 -2.3599128e-05 -0.052040935 0.13349186
167066666666.67 0.040456995 0.015731508 10.231005 11.024403 -2.5217569e-06 -2.4770628e-05 -0.042061269 0.1366815
167133333333.33 0.042479843 0.010619821 11.224647 10.020051 4.9372015e-06 -1.4875865e-05 -0.032444485 0.13914996
167200000000 0.041417655 0.0049062688 12.07902 8.9241638 2.9489456e-08 -3.2248176e-05 -0.022977818 0.14041351
167266666666.67 0.039396379 0.0017609019 12.884034 7.7415371 -2.0824724e-05 -2.4390669e-05 -0.013235178 0.14158441
167333333333.33 0.041283473 -0.0038896017 13.562383 6.5499439 -1.0733771e-05 -1.4773389e-05 -0.003521977 0.14141813
167400000000 0.038641755 -0.0083671296 14.080669 5.2554016 -7.5446901e-06 -2.3093307e-05 0.0058378279 0.14109334
167466666666.67 0.036205731 -0.012025259 14.498446 3.9897628 -1.6392725e-05 -1.854465e-05 0.015295526 0.1397064
167533333333.33 0.033091966 -0.016540218 14.837578 2.5710843 2.9403043e-07 -9.5763676e-07 0.024614975 0.13795444
167600000000 0.028937122 -0.018286025 14.991367 1.1865892 -1.656805e-05 -1.3689461e-05 0.034165423 0.13532703
167666666666.67 0.026619717 -0.024618126 15.03336 -0.21271276 -2.4782861e-05 -5.4020979e-06 0.043130912 0.13206828
167733333333.33 0.021640327 -0.025555756 14.96035 -1.5472798 -1.1116828e-05 7.6783244e-06 0.051652662 0.12846199
167800000000 0.017677246 -0.02875242 14.760376 -2.9916105 -2.1615754e-06 -4.2040065e-06 0.060297213 0.12412298
167866666666.67 0.01386629 -0.031142924 14.428869 -4.3120365 -2.3638711e-05 -5.2257965e-06 0.068247229 0.11903129
167933333333.33 0.012020233 -0.033351511 13.956182 -5.6344447 -1.3412686e-05 1.1886986e-05 0.076120928 0.11321926
168000000000 0.0069511849 -0.031301484 13.385142 -6.9292421 -2.0362262e-05 2.0263687e-05 0.083635896 0.10745273
168066666666.67 -2.0803418e-05 -0.034011468 12.700849 -8.0711584 -1.2272995e-05 2.2916945e-05 0.08992143 0.10075735
168133333333.33 -0.0047255391 -0.033156686 11.866863 -9.2534056 -2.3756511e-05 1.6612972e-05 0.096340969 0.093583822
168200000000 -0.009991616 -0.03281574 10.920214 -10.341189 -4.7468052e-06 1.1476686e-09 0.10178559 0.085945979
168266666666.67 -0.013723345 -0.033122551 9.8993731 -11.321229 -1.409505e-05 1.567499e-05 0.10661969 0.078231297
168333333333.33 -0.018656831 -0.030563952 8.8412638 -12.19645 8.4534477e-06 -1.3492763e-06 0.11093885 0.070253596
168400000000 -0.023390574 -0.03031636 7.6641631 -12.927086 3.6347042e-06 1.7501039e-05 0.11458969 0.061488476
168466666666.67 -0.027571255 -0.027269084 6.4684768 -13.566278 5.436762e-06 9.1547508e-06 0.11733902 0.053170923
168533333333.33 -0.035051625 -0.023110684 5.220304 -14.132157 5.3149834e-06 7.4327172e-06 0.12007673 0.044258147
168600000000 -0.038500912 -0.022782903 3.8352442 -14.533694 5.1124425e-06 2.2737715e-05 0.12163912 0.035911202
168666666666.67 -0.042093903 -0.017929528 2.4870279 -14.811053 1.1065029e-05 -4.7771678e-06 0.12216443 0.026563739
168733333333.33 -0.047339991 -0.014701839 1.1562057 -14.965117 1.3942186e-05 1.3114663e-05 0.12271897 0.017746065
168800000000 -0.050227299 -0.011620227 -0.2898035 -14.991512 4.1127772e-05 2.4485824e-05 0.12252428 0.0085901879
168866666666.67 -0.052195724 -0.0062234905 -1.6331127 -14.90687 2.5525214e-05 -5.9737868e-06 0.12141371 -0.00022991002
168933333333.33 -0.055712357 -0.00072321855 -3.0320153 -14.682422 2.2766688e-05 -4.2674428e-06 0.12009592 -0.008941222
169000000000 -0.058617599 0.0039379904 -4.3748522 -14.323126 1.4298665e-05 -1.3171111e-06 0.1180775 -0.017370509
169066666666.67 -0.059357908 0.010200562 -5.6781359 -13.866741 2.8384122e-05 2.2042432e-06 0.11489259 -0.026215144
169133333333.33 -0.062540568 0.016869603 -6.9203491 -13.314174 2.8855695e-05 1.2270084e-06 0.11195064 -0.034191981
169200000000 -0.061966952 0.02352605 -8.1265688 -12.555861 3.017358e-05 -6.4027181e-06 0.10798257 -0.041789874
169266666666.67 -0.062757015 0.029120557 -9.2045002 -11.825485 2.7699352e-05 -6.4540745e-07 0.10341011 -0.04946366
169333333333.33 -0.062373951 0.036530744 -10.288373 -10.802794 1.7094969e-06 -8.1369956e-07 0.098407246 -0.056573857
169400000000 -0.059633002 0.04253789 -11.263603 -9.8273754 1.2973227e-05 -1.3947369e-05 0.09285327 -0.063204013
169466666666.67 -0.059260011 0.04844477 -12.127352 -8.7504234 3.4785426e-05 -7.4033346e-06 0.086377598 -0.069436654
169533333333.33 -0.058139529 0.055074666 -12.88896 -7.5737782 8.6977852e-06 -4.2672827e-06 0.079330809 -0.074963167
169600000000 -0.055364233 0.060948975 -13.509675 -6.3656101 2.8102693e-05 -1.287074e-05 0.072837673 -0.079619795
169666666666.67 -0.05354286 0.06636478 -14.031854 -5.156548 7.7232344e-06 -2.9151068e-05 0.065556213 -0.083959155
169733333333.33 -0.04901778 0.073025599 -14.422884 -3.7825203 5.1134321e-06 -4.5376051e-05 0.05797144 -0.087728389
169800000000 -0.04548879 0.0784318 -14.673248 -2.4271996 3.0476313e-05 -3.1269294e-05 0.050189052 -0.090685375
169866666666.67 -0.040820055 0.083449207 -14.85927 -1.1264474 1.8473092e-05 -3.4202807e-05 0.042564906 -0.093004078
169933333333.33 -0.03680481 0.089474589 -14.900902 0.29447317 -4.5278102e-07 -4.1580774e-05 0.034807242 -0.095252551
170000000000 -0.030473199 0.094213672 -14.75165 1.7106256 1.227656e-05 -1.6866601e-05 0.026478678 -0.096413486
170066666666.67 -0.024378736 0.097948842 -14.523212 3.0611954 -3.2339108e-06 -4.9194452e-05 0.018243574 -0.096878774
170133333333.33 -0.015644465 0.10225135 -14.150028 4.349421 -2.4608582e-05 -5.3732692e-05 0.010299634 -0.096877471
170200000000 -0.0092166625 0.10752646 -13.712107 5.6562462 -6.8624113e-06 -4.1216259e-05 0.002311606 -0.096557677
170266666666.67 -0.0010962763 0.1101354 -13.095705 6.9371543 6.787227e-06 -2.9648216e-05 -0.0053507285 -0.095272519
170333333333.33 0.0068944097 0.11085235 -12.391167 8.0687103 -2.7858525e-05 -3.4838107e-05 -0.012877051 -0.093507975
170400000000 0.01353408 0.11434779 -11.585725 9.1547337 -1.9976273e-05 -5.0258859e-05 -0.020524422 -0.091182806
170466666666.67 0.020037079 0.11517937 -10.695973 10.161737 -2.4189791e-05 -3.1525939e-05 -0.027662128 -0.088217452
170533333333.33 0.030088797 0.11614089 -9.7063751 11.094609 2.2970371e-06 -3.0792944e-05 -0.034714721 -0.084727511
170600000000 0.038120534 0.1154885 -8.6843796 11.891659 -3.595369e-05 -3.1979827e-05 -0.041321028 -0.080755457
170666666666.67 0.045864288 0.11514145 -7.5787439 12.641771 -3.8632606e-05 -2.1067681e-05 -0.047545366 -0.076295123
170733333333.33 0.055503108 0.11358002 -6.3757162 13.242691 -5.8262463e-05 -3.4574256e-05 -0.0536916 -0.071151182
170800000000 0.064179458 0.11059152 -5.1674833 13.769796 -6.5507513e-05 -4.0123603e-05 -0.058792561 -0.065699369
170866666666.67 0.072210431 0.10749 -3.840637 14.14343 -5.6543606e-05 -3.3557881e-05 -0.063802749 -0.059783585
170933333333.33 0.078384072 0.10422832 -2.5447302 14.407111 -5.6953722e-05 -2.7660251e-05 -0.06812717 -0.053769991
171000000000 0.087510958 0.10000143 -1.1702976 14.595531 -5.2872518e-05 -3.696153e-05 -0.07205794 -0.047229916
171066666666.67 0.095589548 0.095005199 0.18925619 14.628941 -6.3842264e-05 -1.2360571e-05 -0.075067587 -0.040691052
171133333333.33 0.10216565 0.090681449 1.5597215 14.545113 -5.9256628e-05 -3.9731385e-06 -0.078199774 -0.033555962
171200000000 0.10879652 0.083719157 2.9062431 14.272841 -8.2714803e-05 -9.6359436e-06 -0.080156274 -0.02673905
171266666666.67 0.1157608 0.076259345 4.1572928 13.9622 -5.9014274e-05 1.3600938e-05 -0.081446871 -0.019698387
171333333333.33 0.12090355 0.06973473 5.4169593 13.534129 -8.2388782e-05 1.5488735e-05 -0.082601592 -0.012692317
171400000000 0.12858048 0.061479289 6.6039367 12.934707 -7.8423225e-05 2.0135125e-05 -0.082736284 -0.0054069795
171466666666.67 0.13357069 0.053318352 7.7989211 12.248971 -8.6702465e-05 2.0845469e-05 -0.082795076 0.0017886069
171533333333.33 0.13627601 0.043792833 8.7844162 11.541398 -8.4368352e-05 7.0476417e-06 -0.082130969 0.0088868327
171600000000 0.14226022 0.034854233 9.815074 10.670979 -7.9978985e-05 1.5359625e-05 -0.080691993 0.015721982
171666666666.67 0.14534402 0.026810449 10.700418 9.7266397 -6.3971864e-05 3.5065539e-05 -0.078528479 0.022587627
171733333333.33 0.14612827 0.015493685 11.558987 8.6332922 -6.2804575e-05 5.4651693e-05 -0.076120332 0.029143084
171800000000 0.14828397 0.0056738406 12.324733 7.4614244 -5.1401363e-05 4.3730579e-05 -0.072938308 0.035641856
171866666666.67 0.14793143 -0.0042810589 12.887833 6.3468308 -5.5134049e-05 5.9708229e-05 -0.069696531 0.04182272
171933333333.33 0.15113361 -0.012246108 13.437348 5.1594172 -6.6818713e-05 7.3874326e-05 -0.065634519 0.047516905
172000000000 0.14860597 -0.024167228 13.82792 3.788698 -7.4348543e-05 6.7506036e-05 -0.061168075 0.052865598
172066666666.67 0.14674732 -0.034841646 14.100842 2.6324334 -5.0527917e-05 8.3071478e-05 -0.056456465 0.057796616
172133333333.33 0.14454217 -0.043751683 14.237591 1.3300242 -5.7096688e-05 8.8266825e-05 -0.050995421 0.062460572
172200000000 0.14124982 -0.055467986 14.26754 -0.058813572 -3.7343478e-05 9.1504691e-05 -0.045294173 0.066503167
172266666666.67 0.13950737 -0.064492829 14.216715 -1.329689 -2.5451965e-05 0.00010218355 -0.039317071 0.070226014
172333333333.33 0.13414457 -0.074912131 14.005882 -2.6348662 -1.0130187e-05 8.6596505e-05 -0.033503965 0.073207542
172400000000 0.12872335 -0.084113099 13.708913 -3.7653375 -3.769801e-06 9.703153e-05 -0.027339432 0.075659424
172466666666.67 0.12248843 -0.092997774 13.300138 -5.0663052 7.3684614e-06 8.9898749e-05 -0.020583145 0.077963993
172533333333.33 0.11630357 -0.10200694 12.734673 -6.2766981 1.4471691e-05 0.00010792744 -0.014036015 0.079332598
172600000000 0.10853169 -0.10960945 12.090221 -7.4097037 3.2316369e-05 9.8245277e-05 -0.0075733475 0.080256455
172666666666.67 0.10033453 -0.11680721 11.298427 -8.4017963 3.3630957e-05 0.00010282974 -0.00093240105 0.080442019
172733333333.33 0.09039861 -0.12513267 10.472322 -9.4186335 1.8396013e-05 0.00010206358 0.0055847559 0.080440387
172800000000 0.082659885 -0.13139579 9.5025053 -10.329479 4.1258707e-05 0.00010496697 0.012370039 0.079561822
172866666666.67 0.071644902 -0.13545726 8.5647182 -11.145107 2.890709e-05 9.1586837e-05 0.018850148 0.07839258
172933333333.33 0.062398598 -0.1418511 7.4702654 -11.867796 6.7973662e-05 0.00011030075 0.025099248 0.076790258
173000000000 0.051409811 -0.14514935 6.2905102 -12.486573 7.4784992e-05 8.2932034e-05 0.031291012 0.074572936
173066666666.67 0.039623711 -0.14889225 5.1214161 -13.010013 8.5861058e-05 8.2931037e-05 0.037553079 0.071921274
173133333333.33 0.031575494 -0.15330899 3.9919224 -13.346843 8.8796573e-05 8.7425193e-05 0.042899422 0.068542384
173200000000 0.016618459 -0.15359727 2.7514834 -13.624265 8.2512197e-05 6.5204054e-05 0.048316456 0.064960137
173266666666.67 0.0064176321 -0.15498792 1.5231385 -13.811943 0.00010695896 7.1458388e-05 0.053783257 0.0605933
173333333333.33 -0.005734399 -0.1539894 0.19337654 -13.836359 0.0001001425 5.8278187e-05 0.058560193 0.055665791
173400000000 -0.018593185 -0.15532206 -1.0511699 -13.803231 0.00012244171 5.5715922e-05 0.063147187 0.051353998
173466666666.67 -0.027121231 -0.15220045 -2.2495556 -13.64967 0.00010666234 4.6762991e-05 0.067162745 0.046111282
173533333333.33 -0.039659973 -0.14954221 -3.4692197 -13.342606 0.00011384519 5.1989067e-05 0.070711464 0.040464155
173600000000 -0.050816201 -0.14576232 -4.7225533 -12.904171 0.00013123752 2.4282836e-05 0.073932044 0.03469355
173666666666.67 -0.061338153 -0.14180341 -5.8994827 -12.390465 0.00012819387 1.3917412e-05 0.07648766 0.028480155
173733333333.33 -0.074762635 -0.13770358 -6.9726667 -11.771561 0.00014078361 -6.3342304e-07 0.078645363 0.022195663
173800000000 -0.085010529 -0.13012962 -8.0034838 -11.091614 0.00014799327 -1.7418934e-06 0.080444597 0.015881259
173866666666.67 -0.094050013 -0.12477562 -8.9587774 -10.275689 0.00014099156 -1.2353496e-05 0.081687033 0.009413708
173933333333.33 -0.10342149 -0.11649365 -9.813962 -9.3736687 0.00012599808 -3.4260658e-05 0.082192227 0.002761092
174000000000 -0.11389457 -0.10842397 -10.61119 -8.5031509 0.00013476267 -4.4959099e-05 0.082229301 -0.0034454912
174066666666.67 -0.12183532 -0.099361323 -11.295362 -7.4883237 0.00012853429 -6.3571606e-05 0.081664711 -0.009947259
174133333333.33 -0.12845036 -0.08970993 -11.900419 -6.3389597 0.0001264803 -7.2093317e-05 0.080601469 -0.01656088
174200000000 -0.13574925 -0.079631478 -12.452389 -5.227273 0.00012379818 -8.3083331e-05 0.079480708 -0.022869589
174266666666.67 -0.14195846 -0.067203656 -12.857063 -3.9636989 0.00011428366 -8.7265485e-05 0.077351697 -0.029039102
174333333333.33 -0.14785457 -0.05710303 -13.112839 -2.8447943 9.3090144e-05 -9.3980954e-05 0.074843116 -0.034742061
174400000000 -0.1535275 -0.044822052 -13.294888 -1.6996031 0.00010004459 -0.00010556218 0.072009295 -0.040060557
174466666666.67 -0.15678196 -0.03260643 -13.328455 -0.46323967 8.9576431e-05 -0.00012298783 0.068662323 -0.045392957
174533333333.33 -0.15796445 -0.019997507 -13.294647 0.69786024 8.0731428e-05 -0.00011850992 0.064923748 -0.050537698
174600000000 -0.16235279 -0.0063193105 -13.188868 1.8673093 5.6948375e-05 -0.00014177093 0.060925007 -0.055692591
174666666666.67 -0.16292471 0.0050398856 -12.890644 3.0091736 5.6231078e-05 -0.00014262472 0.056605879 -0.059692346
174733333333.33 -0.16305776 0.020313334 -12.515473 4.2369466 4.6289231e-05 -0.00013978433 0.051623065 -0.063904844
174800000000 -0.16084342 0.031713348 -12.084701 5.3136005 4.2633474e-05 -0.00014105591 0.046653386 -0.06740167
174866666666.67 -0.15940332 0.044944871 -11.431938 6.4061356 2.3286113e-05 -0.00015369827 0.041460559 -0.070833139
174933333333.33 -0.15699954 0.058208905 -10.802962 7.3936486 7.9026795e-06 -0.00016934343 0.035878591 -0.073603146
175000000000 -0.15286964 0.070478305 -10.1371 8.2502394 -8.2388942e-07 -0.00017277256 0.030041926 -0.07601846
175066666666.67 -0.14839448 0.083876483 -9.3044176 9.1576204 -3.330208e-05 -0.00015120789 0.024175117 -0.078137159
175133333333.33 -0.1399385 0.096011922 -8.4077711 9.9172716 -2.7766591e-05 -0.00013996357 0.018094182 -0.079529025
175200000000 -0.13410674 0.10877201 -7.4446874 10.626637 -4.0921383e-05 -0.00014682527 0.011990631 -0.080347598
175266666666.67 -0.12628086 0.1194802 -6.4576979 11.229937 -4.860172e-05 -0.0001616197 0.006341517 -0.080634654
175333333333.33 -0.11902066 0.13015185 -5.4216223 11.706409 -7.2760799e-05 -0.00014990574 0.00063522905 -0.080634624
175400000000 -0.11007375 0.14063288 -4.273632 12.138334 -8.5969245e-05 -0.00014760734 -0.0052736364 -0.080084614
175466666666.67 -0.098146215 0.15064804 -3.1760232 12.473904 -8.9286536e-05 -0.00015979387 -0.011086811 -0.07939399
175533333333.33 -0.089910336 0.15803304 -2.0585895 12.647799 -0.00011624348 -0.00013911728 -0.016825443 -0.077728152
175600000000 -0.074414805 0.1669808 -0.90871859 12.740524 -0.00010041305 -0.00012697265 -0.02241933 -0.076155081
175666666666.67 -0.062054511 0.17185852 0.2873044 12.761844 -0.0001142052 -0.00012915996 -0.028107015 -0.074169919
175733333333.33 -0.049224555 0.17993343 1.4527273 12.660732 -0.00013470204 -0.00012201104 -0.032972574 -0.071436405
175800000000 -0.035385057 0.18472338 2.5652745 12.457172 -0.00014045196 -0.0001079978 -0.037724033 -0.068450369
175866666666.67 -0.022634596 0.18883024 3.7614896 12.099792 -0.00015855885 -8.0741105e-05 -0.042313043 -0.065115348
175933333333.33 -0.00641267 0.19215888 4.7724199 11.673916 -0.00015522852 -7.505955e-05 -0.046725407 -0.061404921
176000000000 0.0077223405 0.19308734 5.7636852 11.196013 -0.00017722695 -6.863098e-05 -0.050266005 -0.05794628
176066666666.67 0.021886986 0.19510968 6.7492719 10.630973 -0.00017301038 -7.9549645e-05 -0.054081082 -0.053423487
176133333333.33 0.036605783 0.19207002 7.6663876 9.8900032 -0.000181635 -5.2009338e-05 -0.05706574 -0.049102582
176200000000 0.051102661 0.19102828 8.5138903 9.1488819 -0.00018361697 -3.815315e-05 -0.060027122 -0.04435394
176266666666.67 0.06933102 0.18907085 9.2918892 8.2991695 -0.00018372711 -1.9561354e-05 -0.061982974 -0.039385039
176333333333.33 0.082045972 0.18540865 9.9724321 7.4148083 -0.00017920151 -5.0587914e-06 -0.064227566 -0.034317855
176400000000 0.094927788 0.18307295 10.553764 6.5046778 -0.00018300765 7.9355159e-06 -0.065721691 -0.029132625
176466666666.67 0.10885494 0.17276308 11.055697 5.4387865 -0.00018605846 2.1010577e-05 -0.066580012 -0.024327349
176533333333.33 0.12670627 0.16777369 11.50107 4.4217472 -0.0002005928 4.7083056e-05 -0.067005917 -0.018840369
176600000000 0.13929002 0.16174293 11.856165 3.3497729 -0.00020122909 6.0158727e-05 -0.067339979 -0.013464412
176666666666.67 0.14957148 0.14946178 12.031168 2.3017077 -0.00020035784 6.220318e-05 -0.06698294 -0.008466593
176733333333.33 0.16196062 0.14059433 12.197851 1.206742 -0.00017036578 7.5690099e-05 -0.066245347 -0.0034697223
176800000000 0.17510027 0.13138741 12.204802 0.08121109 -0.00019480182 0.00010926239 -0.065043457 0.0014711469
176866666666.67 0.18562698 0.12050572 12.131995 -0.98512959 -0.00017397039 0.00011335156 -0.06367673 0.0059569897
176933333333.33 0.19701739 0.10681786 11.951487 -2.1240556 -0.00016412789 0.00013665667 -0.061957337 0.010772853
177000000000 0.20481327 0.092511222 11.64735 -3.1693912 -0.00015578231 0.00014214018 -0.059542499 0.014893675
177066666666.67 0.20969962 0.077019081 11.292243 -4.1230707 -0.00014122366 0.00015910092 -0.057145245 0.018735392
177133333333.33 0.21717995 0.062483877 10.842253 -5.1454659 -0.00014199418 0.00017509221 -0.054478042 0.022273716
177200000000 0.22613937 0.049516007 10.342778 -6.0686007 -0.00011018306 0.00018161976 -0.051456917 0.025913587
177266666666.67 0.22850811 0.029977636 9.7225676 -6.9152775 -0.00010772369 0.00019716563 -0.048415937 0.029168991
177333333333.33 0.23279196 0.013180181 9.0006084 -7.7856183 -0.00010418671 0.00021371141 -0.04437577 0.032428205
177400000000 0.23556153 -0.0032977834 8.2108755 -8.5720329 -7.9447942e-05 0.00022350505 -0.040210236 0.035053749
177466666666.67 0.2364669 -0.022168003 7.3699126 -9.2483463 -5.9224076e-05 0.00022289598 -0.036235567 0.037165139
177533333333.33 0.2341136 -0.038587376 6.4895935 -9.8447084 -5.0139446e-05 0.00023099754 -0.03240313 0.039261863
177600000000 0.23420402 -0.054489166 5.5731277 -10.323906 -2.9745999e-05 0.00023052125 -0.027699344 0.040444076
177666666666.67 0.23086272 -0.070830747 4.624238 -10.735184 -1.4270265e-05 0.00023470921 -0.023056811 0.041128535
177733333333.33 0.22743645 -0.08867202 3.5720975 -11.087654 2.1252308e-05 0.00022783109 -0.018336583 0.041407637
177800000000 0.22311546 -0.10408213 2.6094556 -11.272386 3.4109478e-05 0.00022921269 -0.013726718 0.041682325
177866666666.67 0.21527316 -0.1217465 1.5884552 -11.496617 5.8804926e-05 0.00023065883 -0.0093575083 0.040958852
177933333333.33 0.2094793 -0.13708265 0.50353718 -11.523991 6.7455388e-05 0.00022028756 -0.0046322132 0.040112175
178000000000 0.19748676 -0.15478855 -0.54520226 -11.451308 8.1056278e-05 0.00023616916 -0.00076228939 0.038780198
178066666666.67 0.18943238 -0.16762751 -1.5852044 -11.336709 0.00010867694 0.00020258987 0.003535674 0.036981706
178133333333.33 0.17609106 -0.18339649 -2.5501566 -11.103348 0.00010594678 0.00021463411 0.0073861079 0.034667719
178200000000 0.16500998 -0.19465598 -3.5672779 -10.733644 0.00012605042 0.00021421844 0.011149798 0.032524433
178266666666.67 0.15018751 -0.2094647 -4.5105581 -10.356512 0.00014908123 0.00019086481 0.014310797 0.029741975
178333333333.33 0.13538942 -0.22202229 -5.3722787 -9.8614092 0.00016775637 0.0001933582 0.017400207 0.026477359
178400000000 0.11999002 -0.23168361 -6.2285976 -9.272377 0.00018498654 0.00017299422 0.020340666 0.023289986
178466666666.67 0.10544035 -0.24049273 -6.9929724 -8.6584129 0.00018817952 0.00015151275 0.022814672 0.019798385
178533333333.33 0.085721955 -0.25142911 -7.7463217 -7.9454517 0.00019826103 0.00015513865 0.025406161 0.016046701
178600000000 0.068532258 -0.25697988 -8.4245253 -7.178237 0.00022749044 0.00013043487 0.027514867 0.012160481
178666666666.67 0.050618656 -0.2615318 -8.9480953 -6.3776441 0.00022173348 0.00011401283 0.029084163 0.0075749536
178733333333.33 0.033692732 -0.26525715 -9.4058323 -5.5558982 0.00024618884 9.0882473e-05 0.030199215 0.0035235202
178800000000 0.014004976 -0.27080062 -9.8745184 -4.6736469 0.00025261092 8.8403278e-05 0.031147677 -0.001150554
178866666666.67 -0.0039759018 -0.27022657 -10.177721 -3.7132516 0.00024727522 4.4888991e-05 0.031166729 -0.0057827793
178933333333.33 -0.022707764 -0.27184221 -10.390748 -2.7911251 0.0002583017 4.2261046e-05 0.03103373 -0.010166354
179000000000 -0.042789355 -0.27093649 -10.566704 -1.8498864 0.00026284697 3.0194511e-05 0.03033535 -0.015219664
179066666666.67 -0.064331397 -0.26955694 -10.638753 -0.84330273 0.00026377823 2.8688883e-06 0.029342873 -0.020074204
179133333333.33 -0.083281241 -0.26606733 -10.615727 0.12422898 0.00026163881 -2.0330897e-05 0.027550882 -0.024882685
179200000000 -0.10089824 -0.26140976 -10.54317 1.055557 0.00025617616 -2.8674993e-05 0.025445482 -0.029431589
179266666666.67 -0.11946553 -0.25350073 -10.334917 1.9872687 0.00025173934 -6.9833179e-05 0.023098163 -0.034067243
179333333333.33 -0.13737454 -0.24662794 -10.090153 2.8447747 0.00026357296 -7.0773523e-05 0.019941475 -0.038291741
179400000000 -0.15492901 -0.2388898 -9.715291 3.7403369 0.00024795867 -8.0479993e-05 0.016495585 -0.042258073
179466666666.67 -0.17169929 -0.22681141 -9.2872105 4.6115866 0.00024962454 -0.00012988954 0.012683373 -0.045830127
179533333333.33 -0.19031224 -0.21457811 -8.7877617 5.4402061 0.00024553554 -0.00013144068 0.008607978 -0.049249172
179600000000 -0.20689574 -0.20278409 -8.2201071 6.1533685 0.00024063879 -0.00014361663 0.0041763391 -0.052265018
179666666666.67 -0.22063011 -0.18882465 -7.6346893 6.7959423 0.00023187135 -0.00017088428 -0.00040427223 -0.055019293
179733333333.33 -0.23597112 -0.17443052 -6.9709687 7.4182367 0.00021812131 -0.00020968242 -0.0052542686 -0.0576519
179800000000 -0.24837209 -0.15847541 -6.2291389 7.9630823 0.00019528226 -0.00021532924 -0.010914141 -0.059565574
179866666666.67 -0.25831833 -0.1438272 -5.5111427 8.4166355 0.00018893449 -0.00023819465 -0.01649438 -0.060709417
179933333333.33 -0.26870316 -0.12515789 -4.7142019 8.839982 0.00015908611 -0.00023314825 -0.022056138 -0.061968949
180000000000 -0.27869007 -0.10641149 -3.8954668 9.1762352 0.00014691718 -0.00025262675 -0.027494565 -0.062850587
180066666666.67 -0.28822094 -0.088584721 -3.030442 9.4391289 0.00014526752 -0.0002651675 -0.034088969 -0.063115738
180133333333.33 -0.29294738 -0.067304738 -2.1562753 9.6203642 0.00011257027 -0.00028525409 -0.040047228 -0.062500551
180200000000 -0.2974773 -0.049128488 -1.2914587 9.7380619 0.00010486538 -0.000295023 -0.045972988 -0.062067576
180266666666.67 -0.301709 -0.026172012 -0.4326992 9.7525949 8.254523e-05 -0.00029406906 -0.052162673 -0.060690492
180333333333.33 -0.30460519 -0.0043906197 0.4313004 9.714673 6.2835818e-05 -0.00030467447 -0.058243692 -0.058912456
180400000000 -0.30705026 0.014119861 1.2753433 9.5992775 3.0232695e-05 -0.0003101909 -0.064526215 -0.05653771
180466666666.67 -0.3088046 0.035804451 2.1260364 9.3914261 1.3076016e-05 -0.00030720214 -0.070752352 -0.05344753
180533333333.33 -0.30479273 0.056154013 2.9095857 9.0911198 -3.2005264e-05 -0.00032518047 -0.076366067 -0.050403096
180600000000 -0.3018814 0.07713671 3.6772532 8.7752628 -5.5054104e-05 -0.00032844188 -0.082048945 -0.046271913
180666666666.67 -0.2984066 0.09724427 4.4005122 8.4192171 -7.9875856e-05 -0.00031066293 -0.087538205 -0.042027377
180733333333.33 -0.29183674 0.11825027 5.1242847 7.9248519 -9.0541653e-05 -0.0003130089 -0.092572339 -0.036915265
180800000000 -0.28660244 0.13688062 5.7835426 7.4203582 -0.00010587065 -0.00031056663 -0.097534716 -0.031516988
180866666666.67 -0.27808475 0.16024974 6.4057622 6.8411527 -0.00013291773 -0.0003150086 -0.10176189 -0.025655329
180933333333.33 -0.26644665 0.1766028 6.9451499 6.1939993 -0.00014120259 -0.00028805679 -0.10559514 -0.019418024
181000000000 -0.25601801 0.19508678 7.4030828 5.5783305 -0.00018321592 -0.00027622524 -0.1089097 -0.012827128
181066666666.67 -0.24199513 0.21457565 7.8177257 4.8571053 -0.00021950967 -0.00026498351 -0.11193761 -0.0058830688
181133333333.33 -0.2275843 0.23023625 8.2045956 4.1556931 -0.0002260279 -0.00026035035 -0.11457415 0.0014607348
181200000000 -0.21394235 0.24805221 8.4823093 3.3906481 -0.00026489573 -0.00023830336 -0.11677474 0.0090822317
181266666666.67 -0.19735295 0.26055411 8.681469 2.6305032 -0.00029702479 -0.00022569916 -0.11826459 0.016705096
181333333333.33 -0.17924187 0.2726357 8.8458004 1.8296921 -0.00030606255 -0.00021888784 -0.11918431 0.025093541
181400000000 -0.16036099 0.28869233 8.9459276 1.0879831 -0.00031390865 -0.00018086695 -0.11973127 0.032953367
181466666666.67 -0.14220551 0.29912964 8.970665 0.280056 -0.00032821158 -0.00018215959 -0.11961625 0.041169256
181533333333.33 -0.12263009 0.30561286 8.9007702 -0.5199275 -0.00034544952 -0.00013771732 -0.11937111 0.049480963
181600000000 -0.10398487 0.31729037 8.7880173 -1.2633603 -0.0003727398 -0.00010264711 -0.11761667 0.057778046
181666666666.67 -0.080745228 0.32479897 8.5665922 -2.0549397 -0.00036650832 -5.9186423e-05 -0.1156047 0.065871648
181733333333.33 -0.061036866 0.33007479 8.3540068 -2.7607179 -0.00037104476 -6.2374471e-05 -0.11313688 0.074414439
181800000000 -0.037403859 0.33579466 8.0379047 -3.5387816 -0.00038702259 -2.1012791e-05 -0.10947962 0.082555458
181866666666.67 -0.014418885 0.337488 7.680335 -4.1469412 -0.00039241218 9.5813593e-06 -0.10562747 0.090360574
181933333333.33 0.0083062649 0.33832669 7.2289267 -4.8114128 -0.00036553157 3.3387543e-05 -0.10155245 0.098161682
182000000000 0.028674494 0.33783099 6.7766256 -5.3797979 -0.00038329198 5.133219e-05 -0.096452214 0.10545304
182066666666.67 0.051507883 0.33680207 6.235364 -5.9416323 -0.0003766689 0.00010400263 -0.090785772 0.11252902
182133333333.33 0.075627699 0.33263379 5.6557946 -6.4275355 -0.00036936632 0.00012082204 -0.085045494 0.11912076
182200000000 0.095122814 0.32882985 5.0968494 -6.8713894 -0.00037011784 0.00014277187 -0.078096814 0.1258326
182266666666.67 0.11868876 0.32107785 4.427835 -7.2250004 -0.00036410644 0.00019371894 -0.070568666 0.13135843
182333333333.33 0.14179039 0.31229854 3.7248986 -7.5810633 -0.00032231759 0.00020350507 -0.062592551 0.13692841
182400000000 0.16149735 0.30371693 3.022517 -7.84764 -0.00032574817 0.00025386509 -0.054287679 0.14211482
182466666666.67 0.18143228 0.29328504 2.280432 -8.0210762 -0.00030647038 0.00028410522 -0.045804057 0.14616494
182533333333.33 0.19987838 0.28284508 1.6348675 -8.1973 -0.00028474198 0.00030888026 -0.037317619 0.15013497
182600000000 0.22290766 0.26573241 0.82198524 -8.2958059 -0.00028188212 0.00032272149 -0.027566329 0.15336297
182666666666.67 0.23788381 0.24914517 0.063943982 -8.2601194 -0.00023709724 0.00035946874 -0.018027965 0.156142
182733333333.33 0.25415635 0.23217687 -0.59136724 -8.189784 -0.00018930604 0.00036552816 -0.0084622689 0.15771383
182800000000 0.27053744 0.21813542 -1.3312132 -8.1037521 -0.00019993016 0.00037918595 0.0015765429 0.15909594
182866666666.67 0.28541118 0.19828966 -2.0394664 -7.8785782 -0.00015971233 0.00039352928 0.012008835 0.15976901
182933333333.33 0.29619786 0.17884012 -2.6697342 -7.6558657 -0.00013750956 0.00042533537 0.022318944 0.15959421
183000000000 0.30917484 0.15838039 -3.3779039 -7.367167 -9.1808106e-05 0.00042669458 0.033323392 0.15866639
183066666666.67 0.31954661 0.13440263 -3.9499292 -7.0126019 -6.4731888e-05 0.0004373391 0.043115772 0.15748087
183133333333.33 0.32638657 0.11429207 -4.5127983 -6.579843 -3.3615979e-05 0.00044477367 0.05358386 0.15478121
183200000000 0.3329412 0.09222962 -5.0849376 -6.1453781 -1.4826946e-07 0.00045508731 0.063570395 0.15191117
183266666666.67 0.3401477 0.070823394 -5.5926881 -5.6296253 3.2806285e-05 0.00045273756 0.07340537 0.14793862
183333333333.33 0.34111261 0.046517424 -6.0361743 -5.0992928 8.7027627e-05 0.00046497493 0.083032548 0.14377576
183400000000 0.343631 0.021050408 -6.3933544 -4.5337887 0.00010289973 0.00043918486 0.092666067 0.13852376
183466666666.67 0.34424961 -0.0037265811 -6.7521267 -3.958832 0.00014115717 0.00043465302 0.10140007 0.13304126
183533333333.33 0.34494895 -0.02583912 -7.0379276 -3.2908485 0.00015344161 0.00043403206 0.1100665 0.12591226
183600000000 0.34011731 -0.050939083 -7.2722497 -2.6537325 0.00021416352 0.00042904197 0.11878743 0.11888605
183666666666.67 0.3354919 -0.073789202 -7.4215398 -1.9988155 0.00023316807 0.00041663245 0.12620546 0.11077802
183733333333.33 0.33140054 -0.092346974 -7.5322309 -1.3345137 0.00027944479 0.00037779805 0.13355803 0.10241918
183800000000 0.3225399 -0.11674901 -7.6028872 -0.7098403 0.00030737597 0.00036849704 0.14071469 0.093541622
183866666666.67 0.31285104 -0.14048964 -7.5930672 3.3140182e-05 0.00032992501 0.0003391096 0.14643922 0.084566236
183933333333.33 0.30383474 -0.1595287 -7.5159054 0.69464016 0.00036640227 0.00031459401 0.15225564 0.074568503
184000000000 0.28978664 -0.18336065 -7.4106998 1.3616705 0.00038246723 0.00030181318 0.15702118 0.064299852
184066666666.67 0.27375165 -0.20159502 -7.1964183 1.9870676 0.00043712501 0.00026049995 0.16115712 0.053329706
184133333333.33 0.25899228 -0.2171154 -6.9542246 2.5721087 0.0004283473 0.00024144596 0.16462308 0.042997874
184200000000 0.24521908 -0.23138443 -6.6558952 3.1685669 0.00047005099 0.0002036134 0.16670674 0.030769616
184266666666.67 0.22598824 -0.25147578 -6.3221307 3.7245512 0.00047667243 0.00015197357 0.16874528 0.019830752
184333333333.33 0.20774128 -0.26508006 -5.9343491 4.2390313 0.00047375911 0.00012126412 0.16978344 0.0078584924
184400000000 0.18609689 -0.27970636 -5.5170193 4.6857557 0.00051509612 7.3958756e-05 0.16979231 -0.0029871389
184466666666.67 0.16639347 -0.29591006 -5.0624175 5.1769056 0.00051129627 3.7936756e-05 0.16951014 -0.014972955
184533333333.33 0.14515907 -0.29842371 -4.532845 5.5060534 0.0005281528 1.1096447e-05 0.16731851 -0.026490711
184600000000 0.1220273 -0.30774638 -4.033349 5.8946233 0.00050624425 -4.8117967e-05 0.16605206 -0.038859349
184666666666.67 0.099562697 -0.31696659 -3.4940829 6.2024827 0.0005077995 -7.2447998e-05 0.16334547 -0.049731635
184733333333.33 0.075161412 -0.32557422 -2.8867002 6.4793749 0.00053600437 -0.00011352997 0.15952173 -0.060956579
184800000000 0.051879589 -0.32729372 -2.3033364 6.6430016 0.00048929913 -0.0001693464 0.15449765 -0.071558103
184866666666.67 0.030880049 -0.32887238 -1.6612632 6.7519464 0.00048147776 -0.00018369503 0.14854075 -0.082745217
184933333333.33 0.0041188151 -0.33213115 -1.0565031 6.8669209 0.00048476656 -0.00024962338 0.14316371 -0.093198672
185000000000 -0.021394797 -0.32929841 -0.45890331 6.8892641 0.00046263076 -0.00026292651 0.13642231 -0.10281037
185066666666.67 -0.045032822 -0.3283551 0.16157335 6.8555803 0.00043910454 -0.00029932481 0.12867787 -0.11194747
185133333333.33 -0.06577076 -0.32107666 0.74961019 6.812181 0.00041123101 -0.00033334128 0.119773 -0.12168808
185200000000 -0.090271667 -0.31755421 1.3452928 6.6676974 0.00038429248 -0.00038516236 0.11098604 -0.13000469
185266666666.67 -0.11112972 -0.30623269 1.8818052 6.4424996 0.00034875871 -0.00040883679 0.10148679 -0.13737436
185333333333.33 -0.13424039 -0.2979244 2.4605851 6.2407904 0.00031377526 -0.0004236954 0.091509312 -0.14471188
185400000000 -0.156536 -0.28577325 2.9865146 5.9667478 0.00031073313 -0.00045720267 0.081393719 -0.15114227
185466666666.67 -0.17636883 -0.27036777 3.4857919 5.5863729 0.00024910632 -0.00049423811 0.069973469 -0.15661496
185533333333.33 -0.19399723 -0.26079169 3.941421 5.2576065 0.00021373623 -0.00049966574 0.057613071 -0.1615583
185600000000 -0.21430556 -0.2439214 4.3444018 4.8682833 0.00017732341 -0.00052244839 0.046496473 -0.16511036
185666666666.67 -0.22993509 -0.22797161 4.7441506 4.4450583 0.00012428717 -0.00054505531 0.034018166 -0.1686952
185733333333.33 -0.24547665 -0.2091873 5.1123552 3.9412889 0.00010228863 -0.00055006857 0.021609075 -0.17075442
185800000000 -0.26102379 -0.19371179 5.3795371 3.5365665 3.9490631e-05 -0.00058671477 0.0098971725 -0.17291209
185866666666.67 -0.27386323 -0.17157334 5.6442704 3.0105605 -1.9986386e-05 -0.00056588766 -0.003222324 -0.17326614
185933333333.33 -0.28766546 -0.14757147 5.8645916 2.4714794 -5.6886667e-05 -0.0005612328 -0.016653657 -0.17263122
186000000000 -0.29690367 -0.12896802 5.9976153 1.9437071 -0.00010148097 -0.00053932157 -0.028769827 -0.17124626
186066666666.67 -0.30552825 -0.10695411 6.094594 1.3988549 -0.00011923375 -0.00056590664 -0.041482173 -0.16886544
186133333333.33 -0.3131761 -0.080823362 6.1637497 0.84781265 -0.00017574306 -0.00056538882 -0.053952701 -0.16556913
186200000000 -0.31615162 -0.058656678 6.1712675 0.29696822 -0.00021030163 -0.00052202109 -0.06581495 -0.16131115
186266666666.67 -0.32188767 -0.038245108 6.1330562 -0.24355975 -0.00023745035 -0.00054165663 -0.077751182 -0.1567167
186333333333.33 -0.32319558 -0.011613786 6.0392685 -0.77985096 -0.00028316985 -0.0004955043 -0.089740932 -0.15048479
186400000000 -0.32290781 0.0098817796 5.918541 -1.264852 -0.00035707693 -0.00049090793 -0.10013919 -0.1441178
186466666666.67 -0.324251 0.033642888 5.7410579 -1.7970194 -0.00036575532 -0.00044515083 -0.11105675 -0.13685167
186533333333.33 -0.31928253 0.059993729 5.5360818 -2.2777081 -0.00040268828 -0.0003874893 -0.12115537 -0.12801114
186600000000 -0.31302309 0.083336249 5.2299228 -2.7199173 -0.00042589626 -0.00035746332 -0.13066638 -0.1186965
186666666666.67 -0.30840254 0.10769036 4.9949989 -3.166985 -0.00046965503 -0.00036602735 -0.13947369 -0.10986626
186733333333.33 -0.30125618 0.12929483 4.6554089 -3.5412648 -0.00049696525 -0.00031092152 -0.14765908 -0.099902257
186800000000 -0.29022557 0.15202324 4.2904015 -3.9489977 -0.00050777628 -0.00027594538 -0.15580916 -0.087832808
186866666666.67 -0.27911007 0.17128998 3.9003124 -4.263536 -0.00053362409 -0.00021382811 -0.16186789 -0.077478826
186933333333.33 -0.26562831 0.19388396 3.4770837 -4.583941 -0.00053379062 -0.00018542161 -0.16760299 -0.065229908
187000000000 -0.25038978 0.21088314 3.0206852 -4.8273711 -0.000562926 -0.00011752399 -0.17283779 -0.052304488
187066666666.67 -0.2358336 0.23153913 2.5829263 -5.0584784 -0.00059848389 -9.0964888e-05 -0.17710486 -0.039792445
187133333333.33 -0.21803609 0.24749579 2.1211028 -5.2170696 -0.00056671031 -4.6581234e-05 -0.18018273 -0.027801491
187200000000 -0.19848321 0.26370537 1.6031708 -5.3515921 -0.00058514619 3.0529918e-07 -0.18219686 -0.013735592
187266666666.67 -0.18086077 0.27647424 1.1401443 -5.4114728 -0.00058213208 3.3418248e-05 -0.18314502 -0.00062498078
187333333333.33 -0.15992066 0.29110575 0.62730318 -5.4718742 -0.00059282122 7.6830082e-05 -0.18335579 0.01347167
187400000000 -0.1394265 0.3055993 0.15095472 -5.4506192 -0.00056565879 0.00013560448 -0.18175271 0.027427547
187466666666.67 -0.11679364 0.31304294 -0.3064537 -5.4039798 -0.00055215671 0.00017581295 -0.18031529 0.040560931
187533333333.33 -0.095459171 0.32284322 -0.74631298 -5.3349833 -0.00054579432 0.00022276148 -0.17755921 0.053632367
187600000000 -0.06818296 0.32678869 -1.2557065 -5.2134295 -0.00052405416 0.00027388145 -0.17355181 0.067368373
187666666666.67 -0.046666056 0.33466256 -1.643074 -5.0352907 -0.00049793796 0.00030396483 -0.16830376 0.080020271
187733333333.33 -0.022954881 0.33823144 -2.103358 -4.8354821 -0.00048385793 0.00035155236 -0.16238415 0.092722975
187800000000 0.0058380291 0.3368293 -2.5105009 -4.5727105 -0.00044659234 0.00037039199 -0.15605342 0.1042432
187866666666.67 0.027378924 0.33673143 -2.8512673 -4.3288212 -0.00040514374 0.00039882996 -0.14869478 0.11557523
187933333333.33 0.053908005 0.33723241 -3.2003663 -4.0385947 -0.00038583681 0.00043767638 -0.13971233 0.12760639
188000000000 0.077056348 0.3335982 -3.4992061 -3.7200081 -0.00035285566 0.00043315202 -0.13102789 0.13740721
188066666666.67 0.10043889 0.3269237 -3.7766168 -3.3704269 -0.00032195853 0.00048136112 -0.12156642 0.14651661
188133333333.33 0.12425094 0.31658304 -4.0489516 -2.9789696 -0.00027926368 0.00052382122 -0.11048283 0.1564905
188200000000 0.14735244 0.31148034 -4.2497644 -2.609714 -0.0002306128 0.00052736525 -0.098749608 0.16482863
188266666666.67 0.17119674 0.2995384 -4.4491577 -2.1669285 -0.00019717004 0.00054215308 -0.086526372 0.17220397
188333333333.33 0.18930677 0.28724629 -4.5850792 -1.753752 -0.00016334714 0.00057193718 -0.075453237 0.178978
188400000000 0.20854016 0.27470642 -4.6594572 -1.314501 -0.00011730425 0.00054930593 -0.060821101 0.18413945
188466666666.67 0.22996451 0.25741091 -4.7255754 -0.9085089 -8.7704204e-05 0.00056249707 -0.047511552 0.18897617
188533333333.33 0.24944352 0.24191344 -4.7622528 -0.50388855 -3.0871284e-05 0.00057437527 -0.034148004 0.19290763
188600000000 0.26677847 0.22490069 -4.7630658 -0.097847939 8.4910134e-06 0.00058532041 -0.020445235 0.19518779
188666666666.67 0.28318176 0.20463064 -4.6827159 0.32605147 8.0352183e-05 0.00059118052 -0.0055450909 0.19678698
188733333333.33 0.29685587 0.18363464 -4.6029215 0.73680931 0.00011478623 0.00054466294 0.0083954297 0.19731735
188800000000 0.30955929 0.16425976 -4.4646397 1.1410562 0.0001493927 0.00055123732 0.023370273 0.19613889
188866666666.67 0.32314783 0.13863559 -4.3132429 1.5161492 0.00019271065 0.00055615051 0.037638009 0.19512703
188933333333.33 0.33298117 0.12042905 -4.1199112 1.8740643 0.00021797066 0.00050763512 0.052239921 0.19216597
189000000000 0.33725494 0.094482347 -3.9007211 2.1947813 0.00025632093 0.00051523256 0.065951847 0.18842295
189066666666.67 0.34781593 0.070144162 -3.6919949 2.5009151 0.00029056519 0.00049003639 0.079927444 0.18376686
189133333333.33 0.34927568 0.046177268 -3.4031999 2.773262 0.00034094654 0.00044020335 0.093573414 0.1773106
189200000000 0.35611749 0.018198594 -3.1170039 3.0624437 0.00036843822 0.00042837919 0.10622616 0.17103457
189266666666.67 0.35642818 -0.005723957 -2.8160779 3.2877557 0.0003938188 0.00040429045 0.11906667 0.163471
189333333333.33 0.35417604 -0.033097446 -2.493573 3.4835575 0.00038843538 0.00037760142 0.13142684 0.15529384
189400000000 0.35280302 -0.056137279 -2.1482613 3.6475477 0.00044738763 0.00033571379 0.14214143 0.14514138
189466666666.67 0.34485149 -0.083432071 -1.7522414 3.7975214 0.00047712633 0.000302948 0.15433899 0.13447747
189533333333.33 0.33933586 -0.1083905 -1.4259434 3.8873773 0.00048071769 0.00027829901 0.16378386 0.12347338
189600000000 0.33568376 -0.13203654 -1.064564 3.9771013 0.00050762284 0.00022596531 0.17270352 0.11242229
189666666666.67 0.32124746 -0.15377304 -0.70495486 3.9843433 0.0005390757 0.00022153094 0.18073057 0.099316165
189733333333.33 0.31032062 -0.17583743 -0.35050178 3.9890833 0.00053076725 0.00015577635 0.18863514 0.085833803
189800000000 0.29529905 -0.19838001 -0.0031372309 3.9686313 0.00054092996 0.00010821893 0.19535023 0.07220342
189866666666.67 0.28430724 -0.21871537 0.3182295 3.9080555 0.0005487359 9.2692324e-05 0.20071279 0.058350779
189933333333.33 0.27004972 -0.23872298 0.66059577 3.8105402 0.0005564235 5.369159e-05 0.2053639 0.041899543
190000000000 0.25155497 -0.26020578 0.96949863 3.700537 0.00055038417 -1.1220574e-05 0.20871553 0.02744633
190066666666.67 0.23229544 -0.27246168 1.2657138 3.5491686 0.00054762256 -4.4566063e-05 0.2110845 0.011917315
190133333333.33 0.20942196 -0.2915678 1.5374608 3.3778465 0.00056920142 -8.1582264e-05 0.21240887 -0.0025887676
190200000000 0.18844138 -0.3078908 1.819221 3.182354 0.00052441203 -0.00013572487 0.2117219 -0.019114897
190266666666.67 0.16852753 -0.31921312 2.0506582 2.9597368 0.00051123684 -0.00016525328 0.21021137 -0.034827828
190333333333.33 0.14394657 -0.32838941 2.2655995 2.7548971 0.00047841723 -0.00021824338 0.20910844 -0.050920758
190400000000 0.12017441 -0.33961213 2.4662039 2.5255265 0.00048706849 -0.00025615559 0.20532085 -0.066305943
190466666666.67 0.094871327 -0.34910697 2.6171405 2.2560406 0.000464232 -0.00028364232 0.20044266 -0.081245735
190533333333.33 0.072112694 -0.35514709 2.7512367 2.0156875 0.00044852664 -0.00031023944 0.19490628 -0.095486484
190600000000 0.0442864 -0.36089352 2.8717606 1.7433184 0.0004379446 -0.0003363346 0.18860391 -0.11045012
190666666666.67 0.019060194 -0.361738 2.9642515 1.4813495 0.00039094285 -0.00036544912 0.17968278 -0.1242581
190733333333.33 -0.0077920258 -0.36443022 3.0337732 1.2123736 0.00037356341 -0.0004176622 0.17200801 -0.13805692
190800000000 -0.031118654 -0.35794258 3.0808918 0.94674367 0.00033393712 -0.00041806212 0.16225865 -0.15141334
190866666666.67 -0.05863522 -0.35817674 3.0982013 0.6818521 0.00031941445 -0.00044312721 0.15002583 -0.16370398
190933333333.33 -0.086961709 -0.35071221 3.0959692 0.42840141 0.00027906708 -0.00045863324 0.13833174 -0.17512603
191000000000 -0.11158351 -0.3480863 3.0818288 0.18071336 0.00022225172 -0.00048065931 0.12600783 -0.18535556
191066666666.67 -0.13863775 -0.3408629 3.058105 -0.051846147 0.00021472381 -0.00051942689 0.11280562 -0.19518125
191133333333.33 -0.15873823 -0.32794955 2.9946785 -0.26772392 0.00018195558 -0.00051085919 0.098909453 -0.20386878
191200000000 -0.18136145 -0.31641725 2.9471352 -0.47721505 0.0001485798 -0.0005014647 0.084068179 -0.21130876
191266666666.67 -0.20325677 -0.30229825 2.8751328 -0.67915314 8.3590719e-05 -0.00052305369 0.0688916 -0.21818766
191333333333.33 -0.22829151 -0.28889498 2.7994981 -0.92517465 6.7961271e-05 -0.00053675141 0.052957334 -0.22420146
191400000000 -0.24557751 -0.26944974 2.6943703 -1.1137284 1.0590607e-05 -0.00052983011 0.036965951 -0.22795507
191466666666.67 -0.26655948 -0.25332689 2.6006827 -1.3290502 -2.8577648e-05 -0.00052464596 0.021553241 -0.232151
191533333333.33 -0.2793662 -0.23470962 2.4923837 -1.4989458 -7.6137381e-05 -0.00052265252 0.0047084019 -0.23322883
191600000000 -0.29968458 -0.21379651 2.3507049 -1.7193334 -9.980952e-05 -0.00054024573 -0.013791401 -0.23441015
191666666666.67 -0.31204587 -0.18950906 2.1848967 -1.8848481 -0.00013454873 -0.00050725194 -0.029304739 -0.23405161
191733333333.33 -0.32578987 -0.16399878 2.017004 -2.0579669 -0.00016656083 -0.00049750536 -0.046504356 -0.23250416
191800000000 -0.33922186 -0.1415659 1.838306 -2.2250655 -0.00018932257 -0.00048668016 -0.064358056 -0.23009844
191866666666.67 -0.34696558 -0.11888282 1.6513686 -2.3502595 -0.0002396879 -0.00046142883 -0.079591274 -0.22643992
191933333333.33 -0.35474837 -0.093838528 1.4376088 -2.4791019 -0.0002823213 -0.00045181956 -0.096455671 -0.22139403
192000000000 -0.36395231 -0.067180619 1.2226572 -2.5820861 -0.00030893082 -0.00042938368 -0.11571167 -0.21334851
192066666666.67 -0.36734468 -0.044251319 1.0093813 -2.6641021 -0.00032873207 -0.0003998529 -0.12786341 -0.20647588
192133333333.33 -0.36600423 -0.017653577 0.77127075 -2.713541 -0.00036247663 -0.00035445573 -0.14222687 -0.19916248
192200000000 -0.36899945 0.010048583 0.52853775 -2.7629671 -0.00036945171 -0.000370289 -0.15809405 -0.18983071
192266666666.67 -0.37020186 0.041509449 0.27787215 -2.7874494 -0.00040704271 -0.00032130614 -0.1713526 -0.17792293
192333333333.33 -0.35950729 0.064878032 0.025132716 -2.7966933 -0.00043720775 -0.00028851989 -0.18505839 -0.16570669
192400000000 -0.35551804 0.088814691 -0.18729466 -2.7708609 -0.00047687892 -0.00027811134 -0.19604532 -0.15464136
192466666666.67 -0.34665126 0.11405192 -0.42831492 -2.7107942 -0.00047518278 -0.00022182924 -0.20773679 -0.14128536
192533333333.33 -0.3387605 0.14053172 -0.68572831 -2.6324589 -0.00046437362 -0.00019210897 -0.21766382 -0.12568964
192600000000 -0.33200711 0.16338375 -0.88166314 -2.5510697 -0.00049440545 -0.0001359647 -0.22710887 -0.11137471
192666666666.67 -0.32074073 0.18709299 -1.1027206 -2.4343729 -0.00049901649 -0.00012925564 -0.23544478 -0.095907979
192733333333.33 -0.30612147 0.21118984 -1.3111987 -2.3215196 -0.00050176063 -0.00010712256 -0.24286149 -0.078526005
192800000000 -0.29094416 0.22890158 -1.482367 -2.195569 -0.00052576757 -5.751002e-05 -0.25087547 -0.062351204
192866666666.67 -0.26834002 0.24894583 -1.6438907 -2.0152128 -0.00054104975 5.1714596e-06 -0.25455865 -0.045465566
192933333333.33 -0.25382423 0.2748006 -1.7980741 -1.8690226 -0.0005327157 3.6386729e-05 -0.25785485 -0.027608871
193000000000 -0.23273478 0.28653744 -1.9266654 -1.6840677 -0.00050986646 8.2388724e-05 -0.25942713 -0.0092227384
193066666666.67 -0.20930924 0.3066546 -2.0660586 -1.493782 -0.00052681327 8.7713619e-05 -0.26125187 0.0091157928
193133333333.33 -0.19112618 0.32129246 -2.1538534 -1.3177927 -0.00049193401 0.00014346535 -0.26182643 0.026085611
193200000000 -0.17327161 0.32976499 -2.2530003 -1.1109091 -0.00048731625 0.00017511715 -0.26195139 0.044479959
193266666666.67 -0.14279863 0.34037957 -2.3068652 -0.87830621 -0.00049323565 0.00019507762 -0.25797442 0.061548412
193333333333.33 -0.11862576 0.35236925 -2.3397346 -0.67712009 -0.00046763624 0.00024487972 -0.25347221 0.080135606
193400000000 -0.090899065 0.36152875 -2.3629668 -0.46909472 -0.00045419706 0.00026040606 -0.24801779 0.097763188
193466666666.67 -0.065595403 0.37287316 -2.3859057 -0.25726485 -0.00038796419 0.00029672589 -0.24162205 0.11556667
193533333333.33 -0.040363379 0.371499 -2.3743637 -0.075016171 -0.00038609401 0.00031327939 -0.23553751 0.13160297
193600000000 -0.016395226 0.37781006 -2.3448138 0.11873454 -0.00036435004 0.00033600978 -0.22588697 0.14777292
193666666666.67 0.0091219842 0.37003866 -2.2983332 0.31667727 -0.00033784244 0.00038443413 -0.21713749 0.16339782
193733333333.33 0.040720895 0.37267637 -2.2373049 0.51218212 -0.00030607771 0.00038135459 -0.20487276 0.17725052
193800000000 0.066574499 0.36663973 -2.1586554 0.69733846 -0.00029275974 0.00041719555 -0.19294485 0.19162391
193866666666.67 0.087931007 0.36209318 -2.0785255 0.87475228 -0.00029078207 0.00043040008 -0.18072063 0.20470966
193933333333.33 0.11664119 0.35056716 -1.9638581 1.0237429 -0.00021701163 0.00045221313 -0.16770868 0.21702023
194000000000 0.14035502 0.34376928 -1.854784 1.1798398 -0.00018525413 0.00047580944 -0.15229568 0.22889994
194066666666.67 0.15885237 0.32721087 -1.7236068 1.3179369 -0.00015758639 0.00047784948 -0.13794072 0.23876958
194133333333.33 0.18517233 0.32934186 -1.6033013 1.4365742 -0.00012383374 0.00047372372 -0.11960576 0.24968618
194200000000 0.2066489 0.30385303 -1.4501158 1.5584065 -7.7527759e-05 0.00050133967 -0.1044599 0.25809172
194266666666.67 0.22954698 0.28870776 -1.3138641 1.6433671 -7.037614e-05 0.00050995417 -0.088181794 0.26379395
194333333333.33 0.25454348 0.26938802 -1.1565198 1.7493428 -9.4018033e-06 0.00050378544 -0.070428155 0.27204573
194400000000 0.2708022 0.25723401 -0.9778263 1.8191185 2.7702961e-05 0.0004898113 -0.050122023 0.27583221
194466666666.67 0.28668958 0.23813742 -0.80973434 1.8672245 7.1873175e-05 0.00048787391 -0.030594207 0.27791575
194533333333.33 0.29619622 0.21405749 -0.68054366 1.9142447 8.6135442e-05 0.00048178679 -0.013494643 0.28297874
194600000000 0.31682044 0.18784985 -0.48596933 1.9413824 0.00013043414 0.00048183749 0.0067165941 0.28194475
194666666666.67 0.33363521 0.16432226 -0.32848442 1.9517988 0.0001373722 0.00045927317 0.025801487 0.28039339
194733333333.33 0.33821133 0.14470202 -0.17402157 1.9549607 0.00016879383 0.00044434823 0.043433636 0.27958527
194800000000 0.34958515 0.12590678 -0.0091596842 1.9311053 0.00020394515 0.00041759474 0.061811902 0.27638131
194866666666.67 0.35667726 0.098405749 0.14721781 1.9107389 0.0002265251 0.0004288042 0.080495253 0.27277747
194933333333.33 0.35892183 0.070674986 0.31915238 1.8760924 0.00026975211 0.00040184951 0.10062823 0.26780555
195000000000 0.36043164 0.044979144 0.46491581 1.8069217 0.00029119919 0.00037798638 0.1180167 0.25952914
195066666666.67 0.36931816 0.014927119 0.60798371 1.7574697 0.00031760769 0.00036865505 0.13453296 0.25315294
195133333333.33 0.36501706 -0.0072722733 0.75022948 1.6816351 0.0003477885 0.00033476885 0.15295196 0.24366334
195200000000 0.35663342 -0.033836924 0.86671823 1.5910243 0.00037314859 0.00030957931 0.16789928 0.23328814
195266666666.67 0.35415697 -0.063145414 0.99923855 1.4963877 0.00037281465 0.00027929942 0.18351282 0.22158378
195333333333.33 0.34984222 -0.085966617 1.0948961 1.3873758 0.0004035061 0.00026187481 0.19829518 0.20810567
195400000000 0.34446049 -0.11269113 1.1950474 1.2719846 0.00041189956 0.00021764776 0.21098052 0.19539225
195466666666.67 0.33545095 -0.13317239 1.2789921 1.1554041 0.00042862087 0.00019009349 0.22438553 0.17959921
195533333333.33 0.32591972 -0.15316233 1.3596915 1.0441899 0.00044392547 0.00016609069 0.23698325 0.1642226
195600000000 0.31156653 -0.18337794 1.4282272 0.91918701 0.00045911365 0.0001241225 0.2472422 0.14939818
195666666666.67 0.29425246 -0.20220971 1.4922732 0.78708917 0.00047447815 9.2926304e-05 0.25916785 0.13143274
195733333333.33 0.28115529 -0.22473121 1.525106 0.65693009 0.00043795502 5.7018231e-05 0.26624 0.11439516
195800000000 0.25727475 -0.24261607 1.5554461 0.52139497 0.00045347563 2.6741236e-05 0.27437603 0.096543469
195866666666.67 0.2402018 -0.2590729 1.5828528 0.39601257 0.00045208546 3.3476681e-07 0.28232139 0.07742817
195933333333.33 0.21655579 -0.27447051 1.5898849 0.2498666 0.00046951475 -1.0600357e-05 0.28708345 0.056841612
196000000000 0.20311053 -0.28782856 1.5885996 0.12425701 0.00043007161 -7.3093972e-05 0.28977031 0.037640061
196066666666.67 0.18614912 -0.30322093 1.5684562 -0.014814198 0.00045021588 -8.7374603e-05 0.29070354 0.017956443
196133333333.33 0.15504944 -0.31498626 1.5452195 -0.14333117 0.00038440787 -0.00010923503 0.29249653 -0.0012591928
196200000000 0.12951568 -0.32348633 1.5122837 -0.26361436 0.00043192549 -0.00015816407 0.29311493 -0.020857841
196266666666.67 0.10437085 -0.33530539 1.4519498 -0.40205625 0.00041665597 -0.00016128861 0.28908712 -0.041232932
196333333333.33 0.08337073 -0.33428258 1.4085648 -0.49897015 0.00039134183 -0.00019686931 0.28632352 -0.060370371
196400000000 0.060567379 -0.34184745 1.3440914 -0.60644031 0.00040733442 -0.00021457992 0.28092688 -0.079225995
196466666666.67 0.033413216 -0.34328902 1.2850314 -0.70712823 0.00039037695 -0.00025982229 0.27628237 -0.099786684
196533333333.33 0.0072040092 -0.34177086 1.208786 -0.79779387 0.00034124928 -0.00027369498 0.26892728 -0.11840074
196600000000 -0.01584617 -0.34575826 1.1291146 -0.88164592 0.00030371212 -0.00028612936 0.26125526 -0.13463816
196666666666.67 -0.042308196 -0.34028736 1.033583 -0.96345198 0.00030805045 -0.00030126012 0.25163108 -0.15369523
196733333333.33 -0.067990221 -0.33979893 0.94930351 -1.0278749 0.00028681933 -0.00033262756 0.24102639 -0.16971058
196800000000 -0.0916688 -0.33047119 0.8394717 -1.0988564 0.00026493194 -0.00034925426 0.22752525 -0.1864645
196866666666.67 -0.11652495 -0.32458088 0.74691683 -1.1498888 0.00023060219 -0.00034883837 0.2152539 -0.20269449
196933333333.33 -0.13849893 -0.31324813 0.647811 -1.1962613 0.00021854215 -0.00035440145 0.20342663 -0.21475853
197000000000 -0.16048032 -0.29826203 0.53730822 -1.2225349 0.00020448273 -0.00038837618 0.18591309 -0.22831351
197066666666.67 -0.18336052 -0.28167954 0.43702596 -1.2530355 0.00018374604 -0.00040419478 0.17013583 -0.2417534
197133333333.33 -0.20194143 -0.26874343 0.32956082 -1.2598059 0.00013247709 -0.00041311127 0.15369485 -0.25183728
197200000000 -0.22075105 -0.25352359 0.23248726 -1.2644432 0.00010477335 -0.00041012897 0.13578711 -0.26170328
197266666666.67 -0.23957686 -0.23151703 0.12101221 -1.2677795 6.4164087e-05 -0.00043583126 0.11777111 -0.27143806
197333333333.33 -0.25487193 -0.21539761 0.015205711 -1.2568634 4.476311e-05 -0.00044140648 0.0993779 -0.27840313
197400000000 -0.27040499 -0.1951693 -0.092278302 -1.2405773 2.5893678e-05 -0.00041438115 0.081850179 -0.28406745
197466666666.67 -0.28123057 -0.17198335 -0.19168304 -1.2157526 3.6646215e-06 -0.00041588955 0.061015695 -0.29020739
197533333333.33 -0.29517111 -0.15354811 -0.2822215 -1.1824229 -3.115226e-05 -0.00042788874 0.041348904 -0.293228
197600000000 -0.30418032 -0.13277973 -0.37344575 -1.1470191 -6.3679574e-05 -0.00043790875 0.020527154 -0.29587811
197666666666.67 -0.31208107 -0.10534515 -0.46151 -1.0932546 -7.2225113e-05 -0.00044032335 3.9614737e-05 -0.29570213
197733333333.33 -0.31645271 -0.084784254 -0.53873813 -1.0440447 -0.0001040285 -0.00041806902 -0.019037228 -0.29537535
197800000000 -0.32312655 -0.057053298 -0.61922765 -0.98266447 -0.0001532301 -0.00041873369 -0.039442673 -0.29372811
197866666666.67 -0.32763076 -0.031002387 -0.69122434 -0.91985971 -0.00017772113 -0.00040102933 -0.059693411 -0.28984439
197933333333.33 -0.32414365 -0.0096715577 -0.74761021 -0.84588325 -0.00018739974 -0.00039405026 -0.079829216 -0.28496626
198000000000 -0.32772791 0.016297832 -0.80884355 -0.77674305 -0.00020716144 -0.00038328377 -0.098899998 -0.2792891
198066666666.67 -0.32115996 0.039207697 -0.85731757 -0.70431668 -0.00024857998 -0.00036629688 -0.11815205 -0.27163172
198133333333.33 -0.32176617 0.062583491 -0.89970213 -0.62631345 -0.0002705291 -0.00034315154 -0.13532397 -0.26305231
198200000000 -0.31538522 0.089158654 -0.94224203 -0.54240972 -0.00027934412 -0.00033910671 -0.15162121 -0.2535499
198266666666.67 -0.30669078 0.11481467 -0.96420676 -0.45653608 -0.00032085582 -0.00031716484 -0.1687355 -0.24210566
198333333333.33 -0.29156232 0.13371307 -0.98230851 -0.37768835 -0.00030409684 -0.00026996643 -0.1847191 -0.23001209
198400000000 -0.28488487 0.157355 -1.0026069 -0.29541641 -0.00033114242 -0.00027162093 -0.2009083 -0.21699923
198466666666.67 -0.2706621 0.17843391 -1.0069273 -0.21304768 -0.00036029035 -0.00024112918 -0.21338908 -0.20336448
198533333333.33 -0.25594276 0.20077062 -1.0106939 -0.12555742 -0.00037615633 -0.00021251527 -0.22774389 -0.18729715
198600000000 -0.23749679 0.21768577 -1.0052594 -0.038241893 -0.00038237736 -0.00018932125 -0.24096443 -0.16995709
198666666666.67 -0.22600013 0.2344894 -0.99289846 0.043383121 -0.00039584417 -0.00018419187 -0.25121796 -0.15471062
198733333333.33 -0.20070267 0.25276327 -0.97457623 0.12485188 -0.00040372415 -0.00015161753 -0.26077235 -0.13652793
198800000000 -0.18604565 0.26414692 -0.94801271 0.19532567 -0.00042753009 -0.00011503929 -0.26863354 -0.11851332
198866666666.67 -0.16156159 0.27900246 -0.92076355 0.274279 -0.0004292971 -7.6203796e-05 -0.2776148 -0.099556118
198933333333.33 -0.13713351 0.29010969 -0.88549656 0.34213191 -0.00042265118 -3.5232482e-05 -0.28184986 -0.079727389
199000000000 -0.12259494 0.29719296 -0.84789562 0.40353218 -0.0004351415 -2.1621439e-05 -0.28663212 -0.060808264
199066666666.67 -0.096361518 0.30791235 -0.8004539 0.46572798 -0.00043673578 -1.268636e-06 -0.28942925 -0.040396228
199133333333.33 -0.069730893 0.31341749 -0.75093412 0.51273507 -0.00043166117 1.3498163e-05 -0.29065254 -0.02091936
199200000000 -0.045088895 0.31676579 -0.70037901 0.56385404 -0.0004288021 6.8996262e-05 -0.29074901 -0.001153335
199266666666.67 -0.025012732 0.32030195 -0.64317727 0.61237204 -0.00042055832 9.7868578e-05 -0.29006988 0.019106224
199333333333.33 -0.0010755789 0.32271171 -0.58682096 0.65500766 -0.00043201543 0.00011155407 -0.28746438 0.040492516
199400000000 0.025624827 0.3159419 -0.52761149 0.68761361 -0.00039536654 0.00014574517 -0.28398836 0.057505511
199466666666.67 0.053803787 0.32250401 -0.46550193 0.72416389 -0.00039753402 0.00017293426 -0.27814963 0.077418953
199533333333.33 0.077997252 0.31606266 -0.40653586 0.74432945 -0.00037678424 0.00020073324 -0.27132186 0.096861742
199600000000 0.099806271 0.30409136 -0.34133986 0.7628234 -0.00037469875 0.00021416118 -0.26401049 0.11429738
199666666666.67 0.12118147 0.29786628 -0.28338233 0.78330886 -0.0003332427 0.00025073654 -0.25518882 0.13194178
199733333333.33 0.14779234 0.28929031 -0.21084125 0.79137653 -0.00030994747 0.00026061054 -0.24458648 0.14986493
199800000000 0.16849545 0.27879176 -0.14744887 0.79645467 -0.000314228 0.00030402798 -0.23236376 0.16545379
199866666666.67 0.1950326 0.26180068 -0.082415327 0.79735726 -0.00030816419 0.00031825338 -0.22091241 0.17969504
199933333333.33 0.20797306 0.24716172 -0.012976944 0.78673548 -0.00027463664 0.00031744348 -0.20560074 0.19602668
200000000000 0.22795396 0.22921406 0.048786074 0.77641118 -0.00027903198 0.00035348494 -0.19293776 0.209629
200066666666.67 0.24922515 0.21442714 0.099791773 0.76158369 -0.00021750366 0.0003348329 -0.17806998 0.22145727
200133333333.33 0.26616222 0.19284233 0.16673657 0.73977709 -0.00022695053 0.00036034166 -0.16139123 0.23423594
200200000000 0.27759171 0.17425551 0.21731246 0.72167504 -0.0001652037 0.00036218402 -0.14408636 0.24371889
200266666666.67 0.2956562 0.14755973 0.27061358 0.69090068 -0.00019236829 0.00040558612 -0.12664472 0.25280097
200333333333.33 0.30643469 0.13110977 0.32394981 0.66001695 -9.6799435e-05 0.00039288634 -0.10607102 0.26097754
200400000000 0.31695387 0.10425432 0.36963454 0.62377548 -0.00010967941 0.0004173425 -0.087143853 0.26790857
200466666666.67 0.32704431 0.077637739 0.40538597 0.58171928 -7.3623152e-05 0.0004079596 -0.067625523 0.27140668
200533333333.33 0.32586908 0.050777275 0.44632101 0.54266 -6.3871892e-05 0.00040113836 -0.048247676 0.27596432
200600000000 0.34145609 0.02842918 0.4866432 0.50621313 -1.6199745e-05 0.0004265497 -0.027381524 0.2779476
200666666666.67 0.33767524 0.0098943263 0.51152784 0.46036816 1.9019513e-05 0.00041206111 -0.005416967 0.27901009
200733333333.33 0.33645663 -0.029281691 0.54159814 0.40983278 5.0417366e-05 0.00044396232 0.013791673 0.27827442
200800000000 0.34002224 -0.0553957 0.55787194 0.36276042 4.4036227e-05 0.00042778219 0.031778764 0.27627683
200866666666.67 0.33684915 -0.077134982 0.57845312 0.31945008 9.4681338e-05 0.00041861809 0.053175345 0.27298969
200933333333.33 0.32973614 -0.10382494 0.59144819 0.26900345 9.0876587e-05 0.00042662767 0.072623216 0.26685786
201000000000 0.31696075 -0.12789392 0.6008631 0.22144577 0.00012174108 0.00038925497 0.092804924 0.26046413
201066666666.67 0.30426395 -0.1529741 0.61199719 0.17169778 0.00015564552 0.00040129549 0.11207978 0.25289422
201133333333.33 0.2917394 -0.18496646 0.61632884 0.11923939 0.00018176378 0.00038048596 0.12997186 0.24381407
201200000000 0.28446114 -0.20126048 0.61338884 0.072558314 0.0002225698 0.00034112681 0.14763843 0.23075753
201266666666.67 0.2640782 -0.22424705 0.61412531 0.032765284 0.00024837442 0.00037398783 0.16471501 0.22223139
201333333333.33 0.2472537 -0.25306991 0.60994488 -0.010243386 0.00027231383 0.00034738382 0.18043876 0.20816055
201400000000 0.22746339 -0.27100128 0.59939569 -0.064499944 0.00027068157 0.00030775997 0.1962229 0.19344842
201466666666.67 0.20585367 -0.28665635 0.58810997 -0.10421956 0.00027895629 0.00030272655 0.21013175 0.17870714
201533333333.33 0.18777606 -0.29946131 0.57603806 -0.14237086 0.00031205555 0.00029015026 0.22188152 0.16095662
201600000000 0.15695655 -0.31999648 0.5575546 -0.18659016 0.00033180718 0.00027109962 0.23571371 0.14616774
201666666666.67 0.13877894 -0.32732207 0.53850853 -0.22204949 0.00036538267 0.00024878664 0.24543074 0.12742925
201733333333.33 0.10659264 -0.3399373 0.51941204 -0.26835686 0.00036618547 0.0002403711 0.25552797 0.10736765
201800000000 0.085034519 -0.34212393 0.49591929 -0.30158669 0.00037483472 0.00021252729 0.26221031 0.089772068
201866666666.67 0.052660309 -0.35581118 0.46405649 -0.33423164 0.00040832261 0.00018661519 0.26922137 0.070544213
201933333333.33 0.027233109 -0.35484248 0.42967895 -0.37245765 0.00039647025 0.00015385308 0.2750994 0.048945192
202000000000 0.0058686733 -0.35936826 0.4010244 -0.40171772 0.00040095748 0.00012847911 0.27714428 0.027504444
202066666666.67 -0.022151046 -0.35325351 0.36149347 -0.43362173 0.00040900119 0.00011571613 0.28058052 0.0060321838
202133333333.33 -0.048753187 -0.35435092 0.32690549 -0.45545352 0.0004282775 7.5058611e-05 0.28072661 -0.013453521
202200000000 -0.071819022 -0.3495487 0.28672257 -0.47853735 0.00043595285 5.6496676e-05 0.28138047 -0.034845173
202266666666.67 -0.10114671 -0.34551477 0.24539368 -0.48689175 0.0004547358 3.717342e-05 0.27691174 -0.056020852
202333333333.33 -0.12751693 -0.33669934 0.20152827 -0.5027793 0.0004444583 1.1585918e-05 0.27411956 -0.077715605
202400000000 -0.15039048 -0.32949352 0.15824306 -0.51636404 0.00045990353 -2.6873444e-05 0.26789609 -0.09893693
202466666666.67 -0.17891863 -0.32181534 0.1168866 -0.52555656 0.00043070578 -7.1300994e-05 0.26297724 -0.11982205
202533333333.33 -0.19277674 -0.30505905 0.07832434 -0.51835227 0.00044342648 -9.3938106e-05 0.2533468 -0.13794294
202600000000 -0.2167131 -0.29630265 0.035615981 -0.52777934 0.0004367709 -0.00012452196 0.24239564 -0.15862755
202666666666.67 -0.23600635 -0.28082871 -0.006541416 -0.51639438 0.00042079194 -0.0001409324 0.23221999 -0.17721628
202733333333.33 -0.25852934 -0.26091987 -0.05209133 -0.50535721 0.00042621183 -0.00017628458 0.21712725 -0.19478428
202800000000 -0.27604839 -0.24466984 -0.087109938 -0.49788496 0.00041107333 -0.0001947415 0.20454645 -0.210798
202866666666.67 -0.29060817 -0.22694266 -0.12223399 -0.48065829 0.00039683579 -0.00022994343 0.18931912 -0.22633517
202933333333.33 -0.30854636 -0.207975 -0.16024396 -0.46067867 0.00037908994 -0.00025594703 0.172721 -0.24138173
203000000000 -0.32265997 -0.18705717 -0.19380057 -0.44356889 0.00037245886 -0.00029842841 0.15655968 -0.25565493
203066666666.67 -0.3390224 -0.16105832 -0.22908461 -0.422351 0.00033977814 -0.00029826921 0.1362427 -0.26993135
203133333333.33 -0.34586662 -0.13910851 -0.2589218 -0.39894536 0.0003390307 -0.00032953097 0.11787926 -0.28123263
203200000000 -0.35696182 -0.11442291 -0.28753957 -0.37080196 0.00028819215 -0.00034315189 0.097409412 -0.29085353
203266666666.67 -0.36500582 -0.092221074 -0.3118155 -0.34579545 0.00028506492 -0.00036318027 0.076647781 -0.3014265
203333333333.33 -0.37306881 -0.069343761 -0.3310245 -0.31149477 0.00026485813 -0.00039294397 0.054713465 -0.30681369
203400000000 -0.3757382 -0.04290922 -0.35204187 -0.27824518 0.00023822437 -0.00041335789 0.031017587 -0.3117941
203466666666.67 -0.38187617 -0.014792979 -0.36842453 -0.25214821 0.00020621889 -0.00041141282 0.0082116574 -0.31708547
203533333333.33 -0.3852382 0.0075830142 -0.38179296 -0.2250019 0.00018047269 -0.00042257091 -0.013983224 -0.31876844
203600000000 -0.3832778 0.034954861 -0.38931805 -0.18743369 0.00016053859 -0.00044410271 -0.037975848 -0.31954193
203666666666.67 -0.38469458 0.058008879 -0.39886534 -0.15465446 0.00012108723 -0.00045613485 -0.062242202 -0.316699
203733333333.33 -0.37539956 0.084416144 -0.40231118 -0.12214391 0.00010647774 -0.00048015729 -0.084833518 -0.31563786
203800000000 -0.37070256 0.10598159 -0.40369248 -0.097503752 6.1970291e-05 -0.00048602835 -0.10834464 -0.31074196
203866666666.67 -0.36557123 0.13302018 -0.4049657 -0.061292067 4.8421396e-05 -0.00046766896 -0.13014834 -0.30441895
203933333333.33 -0.35541144 0.16154598 -0.40208742 -0.024670124 2.2763707e-06 -0.00048042188 -0.15276098 -0.2966333
204000000000 -0.34212822 0.18298651 -0.39957759 0.0017869473 -4.0875369e-05 -0.00049018994 -0.17468411 -0.28583476
204066666666.67 -0.33236161 0.20778956 -0.39472929 0.030356839 -5.6196965e-05 -0.00048624986 -0.19692078 -0.27364212
204133333333.33 -0.31761035 0.22808051 -0.38815066 0.059508219 -9.7369157e-05 -0.00048071909 -0.21783039 -0.26069692
204200000000 -0.30021948 0.24755722 -0.38045287 0.086330302 -0.00013395501 -0.00046779029 -0.23550545 -0.24695921
204266666666.67 -0.28774828 0.26932657 -0.36555126 0.1136227 -0.00015852091 -0.00045540408 -0.25510734 -0.22837791
204333333333.33 -0.26846576 0.2893692 -0.35043734 0.14067498 -0.00019374661 -0.00043626191 -0.27149776 -0.21141948
204400000000 -0.24696125 0.3057639 -0.33870515 0.16277149 -0.00023314853 -0.00045398928 -0.28438789 -0.19565186
204466666666.67 -0.22897685 0.31842071 -0.32023865 0.185884 -0.00025963635 -0.00043218647 -0.29957554 -0.17699116
204533333333.33 -0.20553342 0.3319889 -0.30787644 0.2107106 -0.00026231821 -0.00038954237 -0.31232691 -0.15659735
204600000000 -0.19125375 0.34431949 -0.28877231 0.22545609 -0.00031509603 -0.00037991427 -0.32324257 -0.13564757
204666666666.67 -0.16380967 0.35794586 -0.26755628 0.2457528 -0.00032871892 -0.00037456062 -0.33213905 -0.11253386
204733333333.33 -0.14140694 0.36780033 -0.24139053 0.26342109 -0.00035949468 -0.00035120983 -0.33928159 -0.088878334
204800000000 -0.11582842 0.37670377 -0.22086954 0.27971435 -0.00037545405 -0.00032310592 -0.34785604 -0.068574786
204866666666.67 -0.09664046 0.38398758 -0.19630325 0.2909199 -0.0003897468 -0.0003132628 -0.35194412 -0.045135811
204933333333.33 -0.065990932 0.38497815 -0.17132668 0.30487826 -0.00042675319 -0.00027457083 -0.35538682 -0.020278998
205000000000 -0.037418097 0.39668912 -0.15265529 0.31492829 -0.00043324992 -0.00024836636 -0.35479531 0.000947088
205066666666.67 -0.014104038 0.38841555 -0.12636155 0.31740391 -0.00046209333 -0.00022545191 -0.35401502 0.024323471
205133333333.33 0.0064051673 0.39156961 -0.10240819 0.32040972 -0.00047969763 -0.00018038809 -0.35496861 0.046309702
205200000000 0.036578149 0.38426381 -0.073653579 0.32859251 -0.00048463774 -0.00016677417 -0.35229266 0.067865208
205266666666.67 0.062570684 0.3859624 -0.046586275 0.32781589 -0.00049979775 -0.00013853637 -0.34674487 0.090093277
205333333333.33 0.084000863 0.38213775 -0.019447517 0.3278605 -0.00051655952 -8.361417e-05 -0.34247217 0.11274002
205400000000 0.11244901 0.37343758 0.0048878565 0.32675147 -0.00050598441 -4.7361871e-05 -0.33590609 0.13345638
205466666666.67 0.13661729 0.36550882 0.028128356 0.32428494 -0.00052319601 -3.2320706e-05 -0.32739604 0.15487912
205533333333.33 0.16210417 0.35603136 0.054902561 0.31616393 -0.00051413482 1.1970362e-05 -0.31774807 0.17678119
205600000000 0.18087576 0.34756657 0.078966297 0.31114024 -0.00052288006 5.3634507e-05 -0.3065846 0.19757617
205666666666.67 0.20045131 0.32389361 0.09736947 0.29804879 -0.00051837403 7.8169585e-05 -0.29519269 0.21402909
205733333333.33 0.22497606 0.30968264 0.11928314 0.29072684 -0.00053717138 9.7435579e-05 -0.28288114 0.23084342
205800000000 0.24280967 0.2958191 0.1407834 0.27601677 -0.00051540846 0.0001408438 -0.2684136 0.249662
205866666666.67 0.26674956 0.28069443 0.16109419 0.26227844 -0.00051419123 0.00021227756 -0.25264698 0.2653358
205933333333.33 0.28667179 0.26170808 0.17781341 0.24629395 -0.00048686194 0.00023394474 -0.23521638 0.28161603
206000000000 0.3014209 0.23921406 0.19487964 0.22846064 -0.00050043047 0.00024252653 -0.21815294 0.29624945
206066666666.67 0.31780314 0.21240081 0.20942484 0.21235287 -0.00046835485 0.00029826647 -0.20089386 0.30808544
206133333333.33 0.32203126 0.1873952 0.22444054 0.19257307 -0.00043696875 0.00034005757 -0.17998081 0.32189655
206200000000 0.33750769 0.16444555 0.23308693 0.17596833 -0.00042414266 0.00035183708 -0.16274925 0.33233103
206266666666.67 0.3537437 0.1477955 0.24532618 0.15780367 -0.00038600632 0.00039976713 -0.13923393 0.34403342
206333333333.33 0.34937596 0.11423902 0.25224942 0.13511641 -0.00040103408 0.00040216994 -0.12133697 0.35102427
206400000000 0.35590714 0.091385402 0.25815755 0.11743923 -0.00035197727 0.00044004511 -0.099514052 0.35809538
206466666666.67 0.36651552 0.064265594 0.26739663 0.094146393 -0.00030262468 0.00045581418 -0.076685749 0.36451
206533333333.33 0.36454824 0.039539106 0.26920962 0.07085938 -0.0003056135 0.000491819 -0.055158637 0.36848766
206600000000 0.36249486 0.01519157 0.27393457 0.054460987 -0.00025407242 0.00050762796 -0.032490764 0.36999416
206666666666.67 0.36468422 -0.014384702 0.27303645 0.03120324 -0.00023685317 0.00051842729 -0.0083749592 0.37115139
206733333333.33 0.36522993 -0.042182088 0.27364698 0.0071835294 -0.00020055272 0.00054126454 0.01602146 0.36892968
206800000000 0.3496981 -0.071401633 0.26859355 -0.010816894 -0.00016342763 0.00055026781 0.038065799 0.36909842
206866666666.67 0.34564424 -0.099856146 0.26722908 -0.035165705 -0.0001178378 0.00057137909 0.060911179 0.36554432
206933333333.33 0.33849832 -0.12135908 0.26190984 -0.050870374 -9.3067414e-05 0.00057344721 0.08076831 0.35958534
207000000000 0.32323867 -0.14640257 0.25174561 -0.067659967 -4.5674347e-05 0.00059804186 0.10593842 0.35587564
207066666666.67 0.31243414 -0.16874361 0.24761325 -0.089635618 6.7979563e-06 0.00058063993 0.12751028 0.34829479
207133333333.33 0.29489511 -0.18978876 0.23495778 -0.10679984 4.983283e-05 0.00056539022 0.14787987 0.33902988
207200000000 0.27744663 -0.20920035 0.22422896 -0.12632181 4.7709938e-05 0.00059997512 0.16840062 0.32935986
207266666666.67 0.25621521 -0.23009235 0.21316926 -0.13674767 0.00010724971 0.00058690185 0.18928453 0.31750727
207333333333.33 0.24287766 -0.25406021 0.19908565 -0.15442739 0.00016677428 0.00056318275 0.20577922 0.30491155
207400000000 0.22360024 -0.26888508 0.18425991 -0.16262248 0.00018870585 0.0005543711 0.22763136 0.28825724
207466666666.67 0.19744596 -0.28221136 0.16779143 -0.17771716 0.00023697664 0.00054380362 0.24102175 0.27220327
207533333333.33 0.18021308 -0.29651627 0.15679586 -0.19011846 0.00027568318 0.00053725223 0.25882247 0.25691724
207600000000 0.15036449 -0.3017523 0.13855739 -0.19888379 0.00032579905 0.00051242422 0.27613699 0.23670535
207666666666.67 0.12969053 -0.322768 0.12088732 -0.20448245 0.00032912265 0.00049559289 0.2855731 0.22080503
207733333333.33 0.092313372 -0.32516339 0.10399859 -0.21383329 0.00040173292 0.00046694733 0.30205956 0.20233685
207800000000 0.072170988 -0.33361989 0.087528303 -0.21935178 0.00041706511 0.00043084033 0.31281301 0.17895746
207866666666.67 0.047280293 -0.3376283 0.067960918 -0.2201488 0.00044658504 0.00041259659 0.32075563 0.15723385
207933333333.33 0.012872718 -0.34062046 0.051978506 -0.22617641 0.00047981439 0.00037133251 0.32821804 0.13673647
208000000000 -0.012245849 -0.33990306 0.031892441 -0.22419077 0.00051823293 0.00035912389 0.3371101 0.11678724
208066666666.67 -0.03649947 -0.33930755 0.015682489 -0.22378762 0.00054026546 0.00031724869 0.34058058 0.090993777
208133333333.33 -0.059157919 -0.33853096 0.0028617978 -0.22585186 0.00054097711 0.00029143714 0.34833252 0.07071051
208200000000 -0.089834452 -0.3249518 -0.020079331 -0.22121219 0.00056470983 0.00024313015 0.34839416 0.042609483
208266666666.67 -0.11666555 -0.31821305 -0.037081316 -0.21689859 0.00057209173 0.00019963646 0.34827614 0.020409018
208333333333.33 -0.14283307 -0.31117687 -0.050479062 -0.21367957 0.00060179643 0.00016896329 0.34713328 0.00022122264
208400000000 -0.16534197 -0.2968927 -0.06680122 -0.20579843 0.00059465889 0.00010592688 0.34635958 -0.024490662
208466666666.67 -0.19764107 -0.28093427 -0.077411845 -0.19524997 0.00062592747 5.5416356e-05 0.34385508 -0.046682529
208533333333.33 -0.21263352 -0.27108663 -0.091187969 -0.19160551 0.00062755006 2.6620051e-05 0.333987 -0.070674524
208600000000 -0.23358038 -0.25332105 -0.10625382 -0.17785278 0.00063094456 -9.1494003e-06 0.32818496 -0.094834775
208666666666.67 -0.25740451 -0.23399368 -0.12428742 -0.16837558 0.00061457051 -2.070293e-05 0.32000983 -0.11596655
208733333333.33 -0.27602997 -0.21195066 -0.12901399 -0.15778325 0.0006204237 -0.00011706466 0.30833936 -0.13691485
208800000000 -0.29792723 -0.19612332 -0.14037135 -0.14296077 0.00061894971 -0.00013030069 0.29651007 -0.15659648
208866666666.67 -0.30875593 -0.16936412 -0.14547633 -0.13713415 0.0005943111 -0.00019861103 0.28326115 -0.17791004
208933333333.33 -0.3278169 -0.15363903 -0.15953013 -0.11981969 0.00058083306 -0.00023221812 0.26942694 -0.19435255
209000000000 -0.33897835 -0.1156956 -0.16499798 -0.10678919 0.00056727632 -0.00024495259 0.25315168 -0.21223804
209066666666.67 -0.34446988 -0.096555643 -0.17025422 -0.0905637 0.00056732201 -0.00032490946 0.23593542 -0.22874258
209133333333.33 -0.35983384 -0.068183333 -0.17472968 -0.078649327 0.00052866258 -0.0003508832 0.2177918 -0.24674957
209200000000 -0.3670221 -0.039804697 -0.17718397 -0.064787 0.000513028 -0.00039506907 0.19804958 -0.25910771
209266666666.67 -0.36827111 -0.016102428 -0.17782341 -0.052158654 0.00047631405 -0.00039308789 0.17842767 -0.27175176
209333333333.33 -0.37250033 0.015524387 -0.18258834 -0.035844214 0.00044264342 -0.00044140153 0.15662217 -0.28194708
209400000000 -0.37112147 0.042418271 -0.18190818 -0.025204509 0.00042467852 -0.00048628755 0.13424645 -0.2911824
209466666666.67 -0.37097135 0.072634891 -0.18133941 -0.0065057175 0.00036851925 -0.00050751929 0.11172663 -0.30001235
209533333333.33 -0.37013775 0.097747028 -0.18011571 0.0035774335 0.00031877117 -0.00054686976 0.090192072 -0.30672374
209600000000 -0.36504459 0.1346789 -0.18042468 0.019716062 0.00030246133 -0.00055460993 0.066200644 -0.31278402
209666666666.67 -0.35580298 0.15346308 -0.17476588 0.028436182 0.00026977799 -0.00059688819 0.043353487 -0.31327143
209733333333.33 -0.35155946 0.1795478 -0.16895044 0.044974454 0.00021108094 -0.0005951593 0.018898979 -0.31471062
209800000000 -0.33158031 0.20758688 -0.16120285 0.057564497 0.00018642902 -0.00060312595 -0.0049808174 -0.31564963
209866666666.67 -0.32399762 0.22865859 -0.1546897 0.069476873 0.00015287372 -0.00062368106 -0.030432567 -0.31086773
209933333333.33 -0.30862114 0.26025385 -0.1502315 0.079059333 7.5924887e-05 -0.00062794797 -0.052256826 -0.30795598
210000000000 -0.2960498 0.27715629 -0.14290184 0.086861983 3.8178638e-05 -0.00063097762 -0.075079963 -0.30334455
210066666666.67 -0.27511325 0.30199862 -0.13160557 0.096846484 1.6024293e-05 -0.00062309264 -0.099934451 -0.29407078
210133333333.33 -0.26034263 0.32446855 -0.12117652 0.10854946 -2.6469252e-05 -0.00061390433 -0.12274043 -0.28628829
210200000000 -0.23266274 0.34698728 -0.11189019 0.11442753 -6.5805856e-05 -0.00063174008 -0.14350188 -0.27403075
210266666666.67 -0.21908896 0.36727232 -0.10223226 0.12091945 -0.00011917025 -0.00061430031 -0.16498287 -0.26254982
210333333333.33 -0.1913738 0.38400638 -0.096776687 0.12856887 -0.00015034185 -0.00060917687 -0.1847108 -0.2471506
210400000000 -0.16545214 0.39351884 -0.082392931 0.13379341 -0.00018935908 -0.00058646873 -0.20176426 -0.23340401
210466666666.67 -0.13416976 0.41425824 -0.069373757 0.13459942 -0.00023848562 -0.00057046756 -0.22119893 -0.21697605
210533333333.33 -0.11362471 0.41891629 -0.060885891 0.14032516 -0.00028902921 -0.00055422424 -0.23905791 -0.19786724
210600000000 -0.09285102 0.43605763 -0.052271713 0.14285646 -0.00030286939 -0.00055063912 -0.2524986 -0.17823605
210666666666.67 -0.063522026 0.43890944 -0.036533311 0.14130768 -0.00033063116 -0.00050962664 -0.2685473 -0.15967578
210733333333.33 -0.033411205 0.45237383 -0.025227919 0.1472781 -0.00038413343 -0.00050122815 -0.27861404 -0.13948405
210800000000 -0.0062738508 0.45133418 -0.018782753 0.14596887 -0.00043764239 -0.00045513641 -0.29002002 -0.11706099
210866666666.67 0.025486462 0.4530707 -0.0053796936 0.145394 -0.00046139499 -0.00043340115 -0.29916871 -0.094636694
210933333333.33 0.060906559 0.45305917 0.0082360432 0.1396001 -0.00048288342 -0.00038615608 -0.30637294 -0.069667749
211000000000 0.0901016 0.45144531 0.017240401 0.14169358 -0.0005352461 -0.00036366348 -0.31202281 -0.047095694
211066666666.67 0.11504155 0.44409913 0.023324918 0.13783033 -0.00053612125 -0.00034190694 -0.31552622 -0.02346684
211133333333.33 0.1399032 0.44301802 0.039443057 0.13057058 -0.00053621782 -0.00031325099 -0.31845093 0.004258275
211200000000 0.16615465 0.43872678 0.045531668 0.12933531 -0.00056956772 -0.0002667348 -0.31907296 0.027593255
211266666666.67 0.19937621 0.4274843 0.054734267 0.12420754 -0.00058941584 -0.00021649533 -0.31826609 0.051395748
211333333333.33 0.22760996 0.41455764 0.060525894 0.11710446 -0.00060369371 -0.0001868899 -0.31336856 0.076011822
211400000000 0.25383404 0.40599185 0.072558388 0.11180881 -0.00060193299 -0.00014680381 -0.30924362 0.10119645
211466666666.67 0.28261185 0.39003271 0.079377182 0.10304584 -0.0005953834 -0.00010309082 -0.30127373 0.12357186
211533333333.33 0.31091741 0.37195063 0.087061867 0.09908843 -0.0006255887 -7.8577359e-05 -0.29566774 0.148424
211600000000 0.32782236 0.3617385 0.090445176 0.090951778 -0.00063591177 -2.8792769e-05 -0.28490719 0.17226791
211666666666.67 0.34656942 0.34111041 0.098255433 0.082066707 -0.00062075863 -1.023378e-06 -0.27470252 0.1937158
211733333333.33 0.37124699 0.32054344 0.10246448 0.074947208 -0.00062391168 4.9390299e-05 -0.26186246 0.21463296
211800000000 0.39188695 0.29528654 0.10416862 0.065340891 -0.00060325611 0.00010009504 -0.24463007 0.23539044
211866666666.67 0.40437275 0.27011007 0.10966481 0.056018881 -0.00060970569 0.00013263852 -0.22869401 0.25618842
211933333333.33 0.4273181 0.24457255 0.11167844 0.048899584 -0.00059636362 0.00019074025 -0.21056242 0.2729145
212000000000 0.45168021 0.21971108 0.11798123 0.036379613 -0.00058624783 0.0002436623 -0.19076335 0.29009342
212066666666.67 0.4589631 0.19333087 0.11286867 0.031138826 -0.00057602231 0.00025127389 -0.17215079 0.30667415
212133333333.33 0.46893996 0.16656002 0.11599168 0.021542296 -0.00054349471 0.00030058579 -0.15113242 0.32086286
212200000000 0.48579282 0.1325848 0.11771996 0.013343185 -0.0005233647 0.00032068783 -0.13104145 0.33293045
212266666666.67 0.4863475 0.11201563 0.11596808 0.0062461644 -0.00048087069 0.00034859311 -0.10756168 0.34539634
212333333333.33 0.49550033 0.085548759 0.11543138 -0.0034770987 -0.00045577204 0.00039544771 -0.082425624 0.35521269
212400000000 0.50647563 0.057870366 0.11431987 -0.011219785 -0.00046024521 0.0004059957 -0.057112996 0.36132079
212466666666.67 0.504264 0.028840989 0.11004858 -0.018160947 -0.00041420804 0.00044004119 -0.029870942 0.37004358
212533333333.33 0.50693333 -0.0029608309 0.11112698 -0.02722723 -0.00038045473 0.00048562619 -0.0082210451 0.37661681
212600000000 0.49939129 -0.042191584 0.10523986 -0.037300192 -0.00035199887 0.00049687742 0.020537687 0.37979454
212666666666.67 0.50140107 -0.067319259 0.10079001 -0.039001711 -0.0003233288 0.00053728581 0.04768572 0.37973714
212733333333.33 0.49665725 -0.098893404 0.09552706 -0.048913263 -0.00027655612 0.00055288523 0.073165029 0.37733823
212800000000 0.48285094 -0.13653442 0.090486474 -0.052781243 -0.00026543945 0.00055154716 0.097795159 0.3779743
212866666666.67 0.48172107 -0.15316792 0.088902406 -0.063966319 -0.00020893385 0.00056394702 0.12711464 0.36991331
212933333333.33 0.46908548 -0.18369454 0.080451861 -0.06412708 -0.00017521257 0.00057458185 0.14987892 0.3639068
213000000000 0.45647699 -0.2085932 0.074394971 -0.069413207 -0.000134591 0.00060842733 0.17751494 0.35502559
213066666666.67 0.44494843 -0.23983017 0.069993459 -0.074597746 -0.00010156343 0.00062877493 0.1996204 0.34390718
213133333333.33 0.43987483 -0.26846594 0.060369644 -0.079349883 -6.1519226e-05 0.0006104827 0.22304219 0.33206388
213200000000 0.40345538 -0.29204977 0.054340832 -0.082124852 1.0557487e-06 0.00059899082 0.24997467 0.31929642
213266666666.67 0.39053768 -0.32264337 0.05235016 -0.086482368 3.6370126e-05 0.00060379528 0.26960826 0.30655995
213333333333.33 0.37551928 -0.34036541 0.04044342 -0.092082322 6.8065361e-05 0.00060261611 0.2942695 0.29034725
213400000000 0.34477308 -0.36639091 0.035654947 -0.089401573 0.00010306514 0.00059949618 0.31163427 0.27428165
213466666666.67 0.32593727 -0.3828297 0.026473053 -0.091844 0.00015549987 0.00059203006 0.33395684 0.25447404
213533333333.33 0.30842158 -0.40466323 0.019547679 -0.091824353 0.00019370133 0.00057625503 0.34630576 0.23689294
213600000000 0.27178517 -0.41189039 0.013995472 -0.09328185 0.0002301377 0.00055873481 0.36982307 0.21102533
213666666666.67 0.24531993 -0.44364563 0.005076692 -0.094609007 0.00025897397 0.00054428325 0.38307813 0.19190985
213733333333.33 0.21515997 -0.44697633 0.0011318661 -0.095198557 0.00029020541 0.0005145875 0.39898181 0.1704991
213800000000 0.18708737 -0.45691663 -0.0096953884 -0.08747375 0.00034366926 0.00050591567 0.4104014 0.14072584
213866666666.67 0.1673879 -0.46754169 -0.014054675 -0.089755774 0.00035601991 0.00047724947 0.41545522 0.11531346
213933333333.33 0.13238595 -0.46280709 -0.022291621 -0.08796563 0.00037843065 0.00045776897 0.43094882 0.089777462
214000000000 0.095065802 -0.4732835 -0.023321956 -0.086236447 0.0003853146 0.00041305818 0.43763396 0.062711641
214066666666.67 0.066080734 -0.47724241 -0.029532794 -0.084559724 0.00044643317 0.00039220703 0.44771805 0.035304591
214133333333.33 0.038068548 -0.47979689 -0.035761692 -0.076196849 0.00047193083 0.00038756948 0.44692615 0.0052347705
214200000000 0.01209186 -0.47557229 -0.041659411 -0.074798241 0.00048691058 0.00033071279 0.44715229 -0.016993985
214266666666.67 -0.024489179 -0.47902715 -0.047321275 -0.074712336 0.00049588061 0.00032143193 0.45021176 -0.047572464
214333333333.33 -0.046698138 -0.46369189 -0.049912691 -0.066884682 0.00052961719 0.00028221612 0.44915178 -0.074715644
214400000000 -0.085469924 -0.46989748 -0.05612988 -0.06343846 0.00053687324 0.00024253031 0.44436574 -0.10487516
214466666666.67 -0.096030802 -0.46119094 -0.055917375 -0.063332275 0.00055062451 0.00023050111 0.43587333 -0.12379519
214533333333.33 -0.13463955 -0.44990247 -0.061335966 -0.055703975 0.00056426763 0.00018764922 0.43381512 -0.15251942
214600000000 -0.16783933 -0.43064398 -0.068981908 -0.052362327 0.00059578451 0.00014838114 0.42656457 -0.18245189
214666666666.67 -0.19343014 -0.41950837 -0.068456277 -0.045273237 0.00056351203 0.00010586452 0.41637003 -0.21014526
214733333333.33 -0.21984258 -0.39830452 -0.072843164 -0.034702122 0.00057604921 6.9848327e-05 0.40307963 -0.23682903
214800000000 -0.24092902 -0.39077723 -0.071846813 -0.0291028 0.00058601069 3.8302678e-05 0.39181012 -0.25861728
214866666666.67 -0.26487398 -0.3726877 -0.07477425 -0.02696065 0.00059009972 5.6697463e-06 0.37416971 -0.28334886
214933333333.33 -0.28801844 -0.34489879 -0.074394532 -0.020846274 0.00059986557 -4.8117676e-05 0.35583606 -0.30647048
215000000000 -0.3122713 -0.32803148 -0.076404445 -0.01868109 0.00058223034 -7.5484189e-05 0.33692935 -0.32889301
215066666666.67 -0.32502136 -0.29676077 -0.074650362 -0.012956034 0.00059638184 -0.00011072413 0.32149455 -0.34629887
215133333333.33 -0.3385461 -0.28601235 -0.077096745 -0.0076331161 0.00058050052 -0.00015609145 0.30435035 -0.3644647
215200000000 -0.35556698 -0.25216424 -0.076166287 0.0014128191 0.00055976637 -0.00017847057 0.27883202 -0.38488287
215266666666.67 -0.38056549 -0.22760895 -0.073758744 0.0054577179 0.00056143606 -0.00024176501 0.25996673 -0.40168771
215333333333.33 -0.38420594 -0.19945285 -0.072708368 0.010388812 0.00053679035 -0.00027933464 0.23425406 -0.41679299
215400000000 -0.3964138 -0.16780721 -0.067462146 0.016433654 0.00053283916 -0.00028992884 0.20463625 -0.42899984
215466666666.67 -0.41184583 -0.14888591 -0.066615328 0.019968942 0.00049265614 -0.000348159 0.18014163 -0.44736597
215533333333.33 -0.42080507 -0.10936836 -0.066994175 0.028837988 0.00047084817 -0.00035417231 0.15009739 -0.45578969
215600000000 -0.41638982 -0.087223388 -0.067055441 0.027508795 0.00044242069 -0.00040233426 0.12808855 -0.46458939
215666666666.67 -0.41708165 -0.05290848 -0.061787885 0.032295711 0.00043720592 -0.00045512634 0.099599689 -0.46922493
215733333333.33 -0.42006451 -0.026807688 -0.059553299 0.037678208 0.00040453585 -0.00045087369 0.07504715 -0.47583866
215800000000 -0.41619805 0.008228898 -0.053728454 0.043235131 0.00038366264 -0.00048255944 0.043515801 -0.47930664
215866666666.67 -0.41540611 0.031576678 -0.054813817 0.044653732 0.00033099065 -0.00052079587 0.015658423 -0.48082474
215933333333.33 -0.41257498 0.062023293 -0.049558379 0.048699889 0.00031096695 -0.00052488863 -0.013486694 -0.48565698
216000000000 -0.40806925 0.087431297 -0.045220248 0.053276539 0.00027021838 -0.00057564705 -0.039867997 -0.48133606
216066666666.67 -0.39639878 0.12450621 -0.040603887 0.056642655 0.00026253806 -0.00058450783 -0.070237771 -0.48058003
216133333333.33 -0.38359314 0.15044099 -0.035023496 0.055911731 0.00021618705 -0.00058455119 -0.098009989 -0.46849769
216200000000 -0.36703861 0.17557698 -0.030421611 0.05989591 0.00017342648 -0.00060538598 -0.12446183 -0.46719879
216266666666.67 -0.35673514 0.2099022 -0.024154278 0.060332902 0.00013707064 -0.00061563938 -0.15537651 -0.4524442
216333333333.33 -0.33882856 0.22726731 -0.023105538 0.059320636 9.8131721e-05 -0.00061962265 -0.17518707 -0.44750893
216400000000 -0.32113868 0.25041705 -0.018099898 0.060730904 4.0441999e-05 -0.00061626825 -0.20329951 -0.4346703
216466666666.67 -0.29189846 0.27528539 -0.015141431 0.063346311 -1.362554e-06 -0.00065021851 -0.22801688 -0.42257243
216533333333.33 -0.27988443 0.29867789 -0.007154935 0.063324682 -2.7098169e-05 -0.00065866159 -0.25486568 -0.40806812
216600000000 -0.25289282 0.31503323 -0.0010779276 0.065624863 -5.4367149e-05 -0.00064222451 -0.27826577 -0.38675857
216666666666.67 -0.23111853 0.33417767 0.0011020172 0.063669547 -0.00012870647 -0.00064540992 -0.29886937 -0.37183881
216733333333.33 -0.20471963 0.35246277 0.0015716422 0.06179066 -0.00016244815 -0.00062730419 -0.32068211 -0.35829037
216800000000 -0.17482486 0.35907012 0.0099705402 0.061993256 -0.00019038212 -0.00062029395 -0.34268144 -0.33275557
216866666666.67 -0.15066232 0.37711054 0.014764123 0.06136186 -0.00023048658 -0.00059630949 -0.36084855 -0.30950522
216933333333.33 -0.11634631 0.39089063 0.018190375 0.05980479 -0.00028926562 -0.00059241528 -0.37759435 -0.29040942
217000000000 -0.095953807 0.39234397 0.023707159 0.056349624 -0.00033268787 -0.00056779326 -0.39284146 -0.26294252
217066666666.67 -0.055501074 0.39686483 0.026883315 0.057198629 -0.00036544105 -0.00054315169 -0.40829563 -0.23962349
217133333333.33 -0.020667516 0.39762703 0.031922001 0.051820118 -0.00039750239 -0.00052610028 -0.41998917 -0.21155429
217200000000 0.010075182 0.4093613 0.036322843 0.051413521 -0.0004278431 -0.00049498776 -0.42906716 -0.18525842
217266666666.67 0.041008979 0.40593994 0.039490536 0.047127716 -0.00046749704 -0.00046747318 -0.43889636 -0.15883839
217333333333.33 0.071092486 0.39904955 0.03684324 0.044172764 -0.0005001286 -0.00041992881 -0.44556424 -0.1284226
217400000000 0.095053896 0.39685994 0.043633625 0.042534564 -0.00054350868 -0.00040086356 -0.45024231 -0.101224
217466666666.67 0.12500703 0.38678068 0.045215812 0.036007524 -0.00054780021 -0.00038839798 -0.45449409 -0.071254238
217533333333.33 0.16288948 0.37578648 0.047379136 0.03412265 -0.00058303407 -0.00035527052 -0.45344317 -0.044691175
217600000000 0.19741294 0.36701569 0.053099062 0.02840629 -0.00061182567 -0.00029585807 -0.45210475 -0.014673218
217666666666.67 0.23119119 0.35561851 0.048479278 0.02517242 -0.00061746605 -0.00023551277 -0.45188627 0.015941691
217733333333.33 0.24224184 0.33648124 0.052245487 0.023411261 -0.00064025039 -0.00020881814 -0.4473201 0.044766784
217800000000 0.29300046 0.32334667 0.054816816 0.017565191 -0.00066325243 -0.00015797769 -0.44205433 0.072589621
217866666666.67 0.30260995 0.2957283 0.05288893 0.013059825 -0.00066982902 -0.00013436798 -0.43664306 0.094474092
217933333333.33 0.32034117 0.27277112 0.057083771 0.0080486406 -0.00068686996 -7.0242328e-05 -0.42516035 0.12648073
218000000000 0.3431944 0.25244272 0.052769035 0.0079215486 -0.0006838555 -1.76467e-05 -0.41304067 0.15319802
218066666666.67 0.3634437 0.21451914 0.052166838 0.0049678963 -0.00067260896 6.2621402e-06 -0.40360704 0.17336187
218133333333.33 0.38042116 0.19142136 0.055580769 -0.00099509954 -0.00066890125 6.8828478e-05 -0.38988897 0.19924821
218200000000 0.40399256 0.15413432 0.05852649 -0.0065362826 -0.00066404534 0.00010717192 -0.37448367 0.22439247
218266666666.67 0.41367754 0.12975323 0.053931542 -0.0096678808 -0.00069622451 0.00016948435 -0.35380408 0.25043058
218333333333.33 0.42069176 0.11232793 0.050624993 -0.018426776 -0.00066286616 0.00021558338 -0.33584344 0.27050546
218400000000 0.43878531 0.062145896 0.049910828 -0.019629288 -0.00065064139 0.00025133157 -0.31212491 0.28745362
218466666666.67 0.4375641 0.036489032 0.048808381 -0.020549323 -0.00064314052 0.00030128314 -0.28896984 0.31092846
218533333333.33 0.45013347 0.011557683 0.046746183 -0.02735051 -0.00060464762 0.000330952 -0.26361907 0.33009464
218600000000 0.45037591 -0.024857 0.041898802 -0.028870083 -0.00058155047 0.00038472799 -0.24014191 0.3405205
218666666666.67 0.44699192 -0.059942629 0.041040473 -0.02663544 -0.00054676202 0.00043101574 -0.21480225 0.35617334
218733333333.33 0.45805585 -0.085481927 0.037674289 -0.032423705 -0.00051658822 0.00046025816 -0.18677205 0.3666842
218800000000 0.45094889 -0.13351205 0.040071696 -0.030181941 -0.00049187243 0.00050248374 -0.16033475 0.37777197
218866666666.67 0.44589689 -0.15830019 0.033713415 -0.040183447 -0.00046922659 0.00055077783 -0.12951903 0.38692778
218933333333.33 0.425969 -0.18215007 0.028531952 -0.041771121 -0.00042758623 0.00053865241 -0.10112344 0.39175633
219000000000 0.41968954 -0.22373125 0.026808374 -0.04353847 -0.00039065396 0.00058737013 -0.070840672 0.39520925
219066666666.67 0.39769277 -0.250626 0.019272763 -0.050069116 -0.00034660479 0.00060118351 -0.039557561 0.39935544
219133333333.33 0.38910484 -0.27689767 0.016031982 -0.04287469 -0.00028345769 0.00062331266 -0.012280181 0.39764214
219200000000 0.36527824 -0.31214014 0.01676056 -0.042827923 -0.00024941307 0.00063201948 0.016322482 0.39611676
219266666666.67 0.35005534 -0.33375195 0.012401693 -0.044653729 -0.00019601206 0.00064643932 0.048661187 0.39306331
219333333333.33 0.31818652 -0.36468887 0.0097962394 -0.040605653 -0.00016826758 0.00066103652 0.080423519 0.38647372
219400000000 0.30432877 -0.3943854 0.0063345721 -0.047200661 -0.00011421983 0.00068611058 0.10572696 0.37543213
219466666666.67 0.27648532 -0.40820348 -0.00093043316 -0.046120476 -4.6024506e-05 0.00070285739 0.13429123 0.36792222
219533333333.33 0.25457734 -0.42863816 -0.0032232795 -0.046693657 -3.1680189e-05 0.00068599288 0.16385695 0.35432559
219600000000 0.22212501 -0.4515627 -0.0075502079 -0.04063651 2.50538e-05 0.00068174803 0.18710646 0.33330926
219666666666.67 0.19829747 -0.46030807 -0.0095903119 -0.047494508 6.3848012e-05 0.00068608229 0.21204162 0.31879023
219733333333.33 0.16476311 -0.47953486 -0.013065685 -0.04332976 0.00014214376 0.00067648699 0.2422751 0.3024165
219800000000 0.14492264 -0.49278229 -0.017190082 -0.044738941 0.00016608574 0.00064235833 0.25438008 0.27698648
219866666666.67 0.10933468 -0.49874893 -0.022147043 -0.041558377 0.00021849769 0.0006524059 0.28122938 0.25835118
219933333333.33 0.073002219 -0.51111144 -0.020459209 -0.042984731 0.00027399292 0.00062076916 0.30242315 0.23470141
220000000000 0.049277276 -0.52122879 -0.02620806 -0.037506208 0.00029242176 0.00064777909 0.31369394 0.20582961
