!Keysight Technologies,N5242B,MY60213711,A.18.40.03
!Date: Thursday, March 26, 2026 01:24:15
!Correction: S11(C  2-Port  ) 
!S21(C  2-Port  ) 
!S12(C  2-Port  ) 
!S22(C  2-Port  ) 
!S2P File: Measurements: S11, S21, S12, S22:
# Hz S  RI   R 50
140000000000 -0.12053653 -0.17060435 -1.4557346 0.60170841 2.1774045e-05 0.00032477023 0.024168156 0.20570755
140066666666.67 -0.14326349 -0.15740991 -1.4079183 0.77028579 4.9839622e-05 0.00029997161 0.042354878 0.20602949
140133333333.33 -0.16249368 -0.12699544 -1.3288678 0.90347934 0.00010557687 0.00028195168 0.063308053 0.20615102
140200000000 -0.16687411 -0.11782712 -1.2401073 1.0492001 0.00012415869 0.00026904553 0.083681442 0.20158008
140266666666.67 -0.18736029 -0.10365482 -1.1270287 1.195803 0.00015222668 0.00027131784 0.10242245 0.19481993
140333333333.33 -0.19288033 -0.084184043 -1.0416455 1.3122814 0.0001681069 0.00024276727 0.12004489 0.18869421
140400000000 -0.19472054 -0.058190089 -0.91065693 1.4048809 0.00020487257 0.00023774646 0.13767365 0.17917763
140466666666.67 -0.20481771 -0.028414667 -0.75504118 1.4870944 0.00022953868 0.00021541657 0.15827717 0.1648711
140533333333.33 -0.19857115 8.1963837e-05 -0.57998383 1.5856411 0.00023556231 0.00015803735 0.17487559 0.15143704
140600000000 -0.20728791 0.0062732063 -0.46460494 1.6413691 0.00026876459 0.00014797582 0.18644388 0.13987775
140666666666.67 -0.20594722 0.031111225 -0.28748268 1.6666353 0.00027008844 0.00011556174 0.19775996 0.12455647
140733333333.33 -0.20090728 0.054864682 -0.11795685 1.7001475 0.00027638895 7.8732322e-05 0.21134615 0.10656708
140800000000 -0.19674599 0.085299119 0.054614127 1.7164916 0.00028765941 4.2059757e-05 0.22248033 0.090340644
140866666666.67 -0.1822979 0.094862737 0.21149877 1.7120929 0.00028507804 1.0977645e-05 0.22798452 0.0746466
140933333333.33 -0.17264315 0.11768053 0.41295964 1.7039804 0.00027322953 -3.1656356e-05 0.23701304 0.053702928
141000000000 -0.15508249 0.14004861 0.57761908 1.6713167 0.00029444363 -6.4083921e-05 0.24315464 0.036794104
141066666666.67 -0.1428559 0.15971906 0.730739 1.6291188 0.00027020861 -6.8835128e-05 0.24755105 0.017468341
141133333333.33 -0.12560843 0.17876552 0.88492143 1.5502244 0.0002702552 -0.00010429497 0.24948546 -0.0038292855
141200000000 -0.11022858 0.18756543 1.0362549 1.4495734 0.00024900044 -0.00012306108 0.25137067 -0.025001712
141266666666.67 -0.080087349 0.19807538 1.1966765 1.3765787 0.00025196443 -0.00017333074 0.2487296 -0.045694422
141333333333.33 -0.066363938 0.21619017 1.3366581 1.226558 0.00021850625 -0.00015892954 0.24819604 -0.065104395
141400000000 -0.042145483 0.21959932 1.4332407 1.1191065 0.00018439055 -0.00021261045 0.24168707 -0.086501971
141466666666.67 -0.013639148 0.22569297 1.5918384 0.97871512 0.0001462732 -0.00023938826 0.23551917 -0.106822
141533333333.33 0.010958135 0.23756169 1.6780275 0.80435491 0.00013626817 -0.00023361739 0.22775257 -0.12340744
141600000000 0.043597504 0.22728524 1.7357738 0.61074841 9.8313096e-05 -0.00024419793 0.21392821 -0.14394328
141666666666.67 0.065155312 0.21926598 1.8236555 0.41519326 7.0736918e-05 -0.00024604145 0.2015416 -0.16397071
141733333333.33 0.072591946 0.21301354 1.8471124 0.21942639 6.6331653e-05 -0.00026318955 0.18815966 -0.17851564
141800000000 0.10848796 0.21777087 1.9084629 0.019748583 2.0331028e-05 -0.00026192339 0.17251596 -0.1977316
141866666666.67 0.14052191 0.21101484 1.8739276 -0.15983033 -1.1036609e-05 -0.00027844548 0.15366165 -0.20734
141933333333.33 0.17300019 0.18734404 1.8623289 -0.3716478 -1.7568243e-05 -0.00025452368 0.13784745 -0.2178627
142000000000 0.18219818 0.16972509 1.8444568 -0.50980771 -4.2313812e-05 -0.00026437113 0.12445316 -0.22961742
142066666666.67 0.20765601 0.15323636 1.7956723 -0.73044676 -7.8771867e-05 -0.00024087069 0.10254632 -0.23898871
142133333333.33 0.22057688 0.1389026 1.6655984 -0.8950814 -9.3882292e-05 -0.00024811664 0.082440697 -0.24456441
142200000000 0.24953096 0.12861572 1.6145904 -1.0648857 -0.00011744727 -0.00022340484 0.063946538 -0.24914698
142266666666.67 0.24714635 0.097660996 1.4957461 -1.24576 -0.00014411492 -0.00021688725 0.044352502 -0.25534725
142333333333.33 0.26597628 0.065236017 1.3728428 -1.3942595 -0.00017330122 -0.00017674557 0.024364367 -0.25805861
142400000000 0.27166677 0.048297096 1.1830268 -1.5587517 -0.00018013688 -0.00017798743 -0.0011661425 -0.26062077
142466666666.67 0.2794354 0.032010615 1.0835587 -1.6431338 -0.00020362035 -0.00015505269 -0.021671183 -0.25866872
142533333333.33 0.28855133 -0.0024393201 0.91816735 -1.7799243 -0.00020997442 -0.00012801554 -0.040559247 -0.25629196
142600000000 0.29386109 -0.031565361 0.70647603 -1.8591734 -0.00023020116 -9.3717419e-05 -0.06049132 -0.25196874
142666666666.67 0.28580338 -0.055001512 0.54374468 -1.9460888 -0.00023822772 -7.6437653e-05 -0.081897184 -0.24601039
142733333333.33 0.26987869 -0.083502367 0.30443257 -1.9793866 -0.0002286454 -4.4545133e-05 -0.10233997 -0.23744647
142800000000 0.27364296 -0.10202876 0.13541836 -2.0080302 -0.00024078393 -1.8496583e-05 -0.11839784 -0.22703765
142866666666.67 0.28223187 -0.13619195 -0.050266087 -2.0556016 -0.0002513295 -7.6212164e-06 -0.13569005 -0.21591094
142933333333.33 0.25584126 -0.15732479 -0.3069478 -2.0466053 -0.00022798397 8.1243124e-06 -0.15337242 -0.2033627
143000000000 0.24961984 -0.17931387 -0.4806456 -2.0221 -0.00024209144 3.3932534e-05 -0.16607748 -0.1897465
143066666666.67 0.23531935 -0.19643748 -0.67172062 -1.9704694 -0.00024036906 7.7647514e-05 -0.17917259 -0.17467642
143133333333.33 0.23417394 -0.23287611 -0.81944609 -1.9343562 -0.00023058608 7.3270166e-05 -0.18832521 -0.15883599
143200000000 0.19525328 -0.23969953 -1.00879 -1.8497039 -0.00020844892 0.00011112099 -0.20245481 -0.14362964
143266666666.67 0.18489733 -0.26694632 -1.2138634 -1.7475758 -0.00019964924 0.00010730747 -0.21097133 -0.12491908
143333333333.33 0.16456422 -0.26814216 -1.3613126 -1.6291697 -0.00018467817 0.00016272481 -0.21879068 -0.10532407
143400000000 0.13339084 -0.29773277 -1.5598894 -1.488358 -0.00016225738 0.00015804269 -0.22628218 -0.088855587
143466666666.67 0.10903361 -0.30739787 -1.6979469 -1.3150048 -0.00014849534 0.00016589405 -0.22962359 -0.067915231
143533333333.33 0.094318412 -0.30509919 -1.8339649 -1.2213757 -0.00012623773 0.00019171422 -0.23443295 -0.048400022
143600000000 0.055453941 -0.32435867 -1.9545392 -0.98946673 -0.00011107246 0.00019373091 -0.23293512 -0.030553706
143666666666.67 0.027925 -0.31350458 -2.0342553 -0.79825896 -8.5211293e-05 0.00021690308 -0.23326001 -0.0097711757
143733333333.33 0.0011919439 -0.33115458 -2.1360254 -0.61452115 -6.7443623e-05 0.00021331654 -0.23066026 0.0068699494
143800000000 -0.034244303 -0.33249003 -2.2029548 -0.37072396 -5.8504873e-05 0.00022532986 -0.22859085 0.027551487
143866666666.67 -0.061629191 -0.33212003 -2.2443166 -0.17798626 -3.0650182e-05 0.00020407166 -0.22155319 0.044041701
143933333333.33 -0.08432357 -0.32605878 -2.2598765 0.075718999 -8.1340186e-06 0.00019878559 -0.21355097 0.063362777
144000000000 -0.11655447 -0.32387885 -2.2622654 0.28434241 2.6956164e-05 0.00022667457 -0.2053466 0.078459375
144066666666.67 -0.14360169 -0.31814784 -2.2500966 0.52067167 5.4585769e-05 0.00023230535 -0.19535641 0.093781359
144133333333.33 -0.17002845 -0.30407122 -2.2171669 0.75046235 5.0707014e-05 0.00020501876 -0.18403313 0.10973161
144200000000 -0.20223668 -0.29073545 -2.1362054 0.96113628 7.6274242e-05 0.0002127296 -0.1730819 0.122303
144266666666.67 -0.22079377 -0.27352482 -2.0279958 1.1837574 0.00010069033 0.00019440686 -0.15861972 0.13461439
144333333333.33 -0.24318695 -0.2533524 -1.9026949 1.4045625 0.00011346588 0.0001762624 -0.14480731 0.14621641
144400000000 -0.26425377 -0.23667024 -1.7816597 1.614969 0.0001334167 0.00017247569 -0.1295756 0.15639374
144466666666.67 -0.28128532 -0.21690372 -1.6140865 1.8179822 0.00014402764 0.00016570257 -0.11267556 0.16394541
144533333333.33 -0.30163938 -0.18391612 -1.4391545 1.9563341 0.00016116181 0.00015342692 -0.097219959 0.17198883
144600000000 -0.31510091 -0.16456807 -1.2713274 2.1138642 0.00016593572 0.00014202656 -0.081005141 0.17724262
144666666666.67 -0.32519573 -0.13490337 -1.0487528 2.2213955 0.00017946592 0.00011765696 -0.063745916 0.18028173
144733333333.33 -0.33733338 -0.10843377 -0.81785268 2.3559365 0.00018350907 9.0171932e-05 -0.045358531 0.18415706
144800000000 -0.34077024 -0.081294402 -0.58420157 2.4355574 0.00020880108 7.3563831e-05 -0.027478822 0.18190011
144866666666.67 -0.34252667 -0.045819856 -0.31843919 2.4961462 0.00021360972 6.3434098e-05 -0.0079043843 0.18121536
144933333333.33 -0.35510132 -0.0086314157 -0.07489574 2.529047 0.00021068814 3.2198521e-05 0.0078660976 0.17940788
145000000000 -0.34747052 0.011813581 0.15536606 2.5522952 0.00020972724 1.9645777e-05 0.024998918 0.17445138
145066666666.67 -0.34812257 0.050091073 0.43597543 2.546423 0.00020240438 1.2624514e-06 0.041682936 0.16972601
145133333333.33 -0.34250242 0.077994235 0.66059256 2.5009639 0.00021638027 -3.2441883e-05 0.055879101 0.16170382
145200000000 -0.33722761 0.10490667 0.91410714 2.4625208 0.00021433091 -3.1937179e-05 0.070397332 0.15282388
145266666666.67 -0.33047521 0.12677789 1.1657588 2.3678966 0.00020635583 -6.5043583e-05 0.085787207 0.14281228
145333333333.33 -0.31773171 0.15356882 1.4080546 2.2551811 0.00019218045 -7.9778867e-05 0.096668214 0.1319949
145400000000 -0.30023578 0.17772293 1.6330498 2.1101422 0.00019873778 -0.00010290148 0.10772955 0.12112965
145466666666.67 -0.28355587 0.20879614 1.8568909 1.9638244 0.00016226151 -0.00011463067 0.11880669 0.10738692
145533333333.33 -0.26559824 0.22327745 2.0393543 1.7674965 0.0001685702 -0.00013249292 0.12694314 0.093791232
145600000000 -0.24894768 0.24642494 2.2515521 1.6055899 0.00014559297 -0.00016070553 0.13569354 0.079521909
145666666666.67 -0.2227331 0.26327485 2.391166 1.3904035 0.00012355458 -0.00016393693 0.14239171 0.064967863
145733333333.33 -0.19157462 0.27978265 2.5299485 1.1734602 0.00011811728 -0.00018614874 0.14629304 0.048974164
145800000000 -0.17374688 0.29624721 2.6479983 0.88439786 0.00010328001 -0.00019108169 0.15202121 0.032560147
145866666666.67 -0.1442309 0.30816019 2.7578082 0.62967253 8.4562562e-05 -0.00020044368 0.15312523 0.016679503
145933333333.33 -0.11217721 0.32202747 2.8815289 0.3697536 6.5317356e-05 -0.00020931424 0.15290299 0.00062144548
146000000000 -0.087573603 0.32357746 2.8924201 0.092927933 3.8391867e-05 -0.00020965088 0.15115851 -0.015254796
146066666666.67 -0.055092353 0.33560431 2.9099097 -0.20489734 2.312683e-05 -0.0002207037 0.14738044 -0.0307971
146133333333.33 -0.031826437 0.33653039 2.8821578 -0.47953045 7.7471559e-06 -0.00020993283 0.14386657 -0.045537882
146200000000 0.0083016232 0.32555047 2.8119161 -0.75923455 1.3280587e-06 -0.00020991539 0.13703856 -0.05956297
146266666666.67 0.029288437 0.32684138 2.7612662 -1.0503619 -3.179998e-05 -0.00020826637 0.13173753 -0.074139304
146333333333.33 0.065168813 0.32753608 2.6750729 -1.3561661 -6.6483342e-05 -0.00021195995 0.12221943 -0.089055479
146400000000 0.096153721 0.31154022 2.5521045 -1.6216722 -7.6153905e-05 -0.00020345779 0.11422052 -0.10051616
146466666666.67 0.11953035 0.30023384 2.3883348 -1.88929 -0.0001063213 -0.00020617695 0.10335084 -0.11289401
146533333333.33 0.14994852 0.28765363 2.2247558 -2.1140549 -0.00010578895 -0.00018160196 0.091789119 -0.12385163
146600000000 0.18272212 0.27022508 2.0124936 -2.3691335 -0.00014191782 -0.00017591883 0.078085624 -0.13246721
146666666666.67 0.18884702 0.25306177 1.7753515 -2.5761549 -0.00015505395 -0.00015878568 0.066364728 -0.14314333
146733333333.33 0.21876821 0.22857562 1.5340449 -2.7356229 -0.00016945752 -0.00014731036 0.052527212 -0.14971147
146800000000 0.23852432 0.20939162 1.2665021 -2.8865778 -0.00018751556 -0.00013024919 0.037250884 -0.15506312
146866666666.67 0.25459877 0.19261606 0.98379666 -3.0191925 -0.00018812496 -0.00011651433 0.022282433 -0.16103631
146933333333.33 0.28075695 0.16687351 0.66225439 -3.1367857 -0.00018452776 -7.1662507e-05 0.0063344501 -0.16401371
147000000000 0.28308639 0.1424491 0.37396383 -3.2150888 -0.00019959468 -6.8836707e-05 -0.0080216005 -0.16588373
147066666666.67 0.28061497 0.10410409 0.038814306 -3.2294381 -0.00020263533 -4.9339247e-05 -0.024637224 -0.16693246
147133333333.33 0.31026205 0.074250579 -0.30010676 -3.2735283 -0.00023303342 -2.2480959e-05 -0.0403069 -0.16587466
147200000000 0.30904937 0.045219541 -0.5914675 -3.2233629 -0.00023125377 -1.9642168e-05 -0.05454186 -0.16126283
147266666666.67 0.30533564 0.016575031 -0.9099775 -3.2025409 -0.00022397524 1.0152668e-05 -0.069339186 -0.15925872
147333333333.33 0.30855399 -0.015478931 -1.2209351 -3.1058815 -0.00021738371 3.6698846e-05 -0.082874641 -0.15436654
147400000000 0.301337 -0.043255135 -1.5369779 -2.9829547 -0.00021609326 5.7880716e-05 -0.097476348 -0.14813392
147466666666.67 0.30029342 -0.072812952 -1.8394588 -2.8561637 -0.00021275869 6.6760702e-05 -0.11058602 -0.14140782
147533333333.33 0.28633839 -0.10880214 -2.1278615 -2.6679425 -0.00020644622 8.9343288e-05 -0.12324461 -0.13368808
147600000000 0.27802858 -0.12623718 -2.3648193 -2.4673142 -0.00019421094 0.0001249378 -0.1358052 -0.12356829
147666666666.67 0.26369053 -0.15816933 -2.6207998 -2.2515848 -0.00018194738 0.0001455614 -0.14738746 -0.11429381
147733333333.33 0.24823195 -0.18314043 -2.8644907 -1.9762312 -0.00016685024 0.00013498864 -0.15769249 -0.10198744
147800000000 0.21513602 -0.21895464 -3.121789 -1.5580981 -0.0001573906 0.0001748931 -0.16758278 -0.090553239
147866666666.67 0.19474001 -0.24081887 -3.3037775 -1.2058991 -0.00016695946 0.00018486951 -0.17627658 -0.077279106
147933333333.33 0.17925332 -0.25222582 -3.401335 -0.99711788 -0.0001148837 0.00017831627 -0.18422636 -0.063167453
148000000000 0.15029375 -0.27651507 -3.5032279 -0.65568334 -0.0001035546 0.00020628952 -0.18975438 -0.050230891
148066666666.67 0.12707706 -0.28897271 -3.5796709 -0.31748641 -0.00010873888 0.00021473688 -0.19468722 -0.034729384
148133333333.33 0.0979366 -0.29372928 -3.5955834 0.029169664 -8.0525278e-05 0.00021203047 -0.19817904 -0.020011215
148200000000 0.067603089 -0.30704743 -3.6211596 0.40575588 -3.323581e-05 0.00024162306 -0.20195377 -0.003921479
148266666666.67 0.034740627 -0.31881574 -3.5756538 0.78224039 -7.9556703e-06 0.00021763124 -0.20257418 0.010316677
148333333333.33 0.0052630184 -0.32346642 -3.487366 1.1386923 -1.8628412e-05 0.00023098777 -0.20310618 0.026006179
148400000000 -0.026495442 -0.32139245 -3.3635087 1.4785786 2.5276655e-05 0.00021267206 -0.20167032 0.041648805
148466666666.67 -0.05959148 -0.31822813 -3.2471786 1.8665876 7.358953e-05 0.00022964246 -0.2000681 0.059335057
148533333333.33 -0.089444429 -0.31617466 -3.0518484 2.1773531 7.7697398e-05 0.00024391287 -0.1965782 0.072740972
148600000000 -0.11998693 -0.30399275 -2.8243666 2.489965 8.0018333e-05 0.00021920179 -0.19187421 0.087430954
148666666666.67 -0.14925259 -0.29267585 -2.582917 2.7780352 0.00010677044 0.00020176596 -0.18639812 0.10195594
148733333333.33 -0.18435569 -0.27721116 -2.2914205 3.0329077 0.00011890681 0.00020452794 -0.17954937 0.11564969
148800000000 -0.20402592 -0.26692873 -2.0008571 3.2723076 0.00015204688 0.00017341071 -0.17117187 0.12823448
148866666666.67 -0.23269325 -0.24476446 -1.695802 3.4512825 0.00016058581 0.00015198656 -0.1632401 0.14118785
148933333333.33 -0.26291743 -0.2228353 -1.3391917 3.6398139 0.00016740779 0.00014342877 -0.1541582 0.15223864
149000000000 -0.28478336 -0.19723676 -0.99907339 3.7686925 0.00019134016 0.00012106408 -0.14400315 0.16401143
149066666666.67 -0.30375469 -0.17875686 -0.62596679 3.8608828 0.0001960661 0.00011370357 -0.13142858 0.17319721
149133333333.33 -0.31955454 -0.14784983 -0.27960646 3.925194 0.00021464197 7.1909264e-05 -0.11982815 0.18376677
149200000000 -0.3343696 -0.13189942 0.108724 3.9722283 0.00021639177 5.5994773e-05 -0.10193546 0.19536357
149266666666.67 -0.35092503 -0.10013832 0.49029946 3.9581516 0.00024780098 3.882336e-05 -0.084218174 0.20353693
149333333333.33 -0.36027497 -0.063218027 0.84112 3.927021 0.00022425421 1.1256518e-05 -0.065557569 0.20947006
149400000000 -0.36856848 -0.030995548 1.2592744 3.8461134 0.00022449008 -1.2849625e-05 -0.049267069 0.21550351
149466666666.67 -0.37656289 0.0015294813 1.6459212 3.720166 0.00022462789 -4.5185334e-05 -0.033958305 0.21856251
149533333333.33 -0.37282938 0.036188439 1.9684229 3.5488777 0.000211668 -3.5157966e-05 -0.021162882 0.22114436
149600000000 -0.36918178 0.06895411 2.3276703 3.3704598 0.00021571782 -5.228661e-05 -0.016859654 0.22147335
149666666666.67 -0.36888582 0.10108504 2.6512439 3.1635263 0.00021707278 -9.5349744e-05 -0.0042630136 0.22290127
149733333333.33 -0.35877636 0.13203405 2.9817815 2.883472 0.00020796587 -9.6947275e-05 0.011573583 0.2212528
149800000000 -0.35499054 0.16626407 3.2431965 2.6337655 0.0001794079 -0.00012327389 0.025554026 0.22032478
149866666666.67 -0.33569646 0.19807404 3.4957964 2.3419363 0.00016782605 -0.00014977419 0.040604047 0.21704382
149933333333.33 -0.32180458 0.2204695 3.6787298 1.9808313 0.00015232206 -0.0001585281 0.053713553 0.21416409
150000000000 -0.30474654 0.24777263 3.909889 1.6317317 0.00013772785 -0.00017494717 0.06559369 0.20960569
150066666666.67 -0.28758562 0.28256562 4.0666127 1.2507448 0.00013485338 -0.00019689171 0.080502942 0.20450294
150133333333.33 -0.26077339 0.30363569 4.1745749 0.84792244 0.00011869247 -0.00018344891 0.092793919 0.19905499
150200000000 -0.2385637 0.32961529 4.278821 0.45120031 8.7465589e-05 -0.00019772133 0.10435043 0.19245744
150266666666.67 -0.2145604 0.35135147 4.332531 0.018951893 9.2213661e-05 -0.00019930328 0.11817376 0.18465197
150333333333.33 -0.18727167 0.3681573 4.3346548 -0.36606634 4.80573e-05 -0.00021286284 0.12830384 0.17477413
150400000000 -0.16184525 0.39078861 4.3102741 -0.81928796 4.0787902e-05 -0.0002234626 0.1395998 0.16516438
150466666666.67 -0.13055202 0.40551466 4.2679567 -1.216288 1.7132414e-05 -0.00023710956 0.14846502 0.15464267
150533333333.33 -0.089723878 0.41513723 4.0999165 -1.727585 -1.2999555e-05 -0.00021334193 0.15816584 0.14524838
150600000000 -0.053200856 0.42626703 3.910651 -2.161202 -1.540887e-05 -0.00023612619 0.16652782 0.13181311
150666666666.67 -0.027724653 0.42659014 3.7357774 -2.5235479 -4.7634378e-05 -0.00020949326 0.17561135 0.12046172
150733333333.33 0.0048151836 0.4350225 3.5052218 -2.867213 -6.2199462e-05 -0.00018804256 0.18101369 0.10765062
150800000000 0.037280381 0.42907003 3.2792768 -3.1857688 -7.4515461e-05 -0.00018915656 0.1890828 0.091334157
150866666666.67 0.050983965 0.4293462 3.025403 -3.4246683 -0.00010684389 -0.00019456583 0.19248532 0.078257367
150933333333.33 0.092757165 0.42726868 2.720804 -3.7422826 -9.8255463e-05 -0.00018261188 0.1946135 0.070686281
151000000000 0.12433389 0.42830381 2.3938634 -3.9899516 -0.00014653215 -0.00015498811 0.19608457 0.059270307
151066666666.67 0.15461875 0.41575414 1.9987676 -4.2133284 -0.0001444362 -0.00013422752 0.19837618 0.046822216
151133333333.33 0.18791021 0.39646453 1.6150289 -4.4192953 -0.00016042629 -0.00012680949 0.19911006 0.034771323
151200000000 0.22564957 0.38509569 1.1942655 -4.6194525 -0.00020278647 -0.00010636362 0.199588 0.022032969
151266666666.67 0.24658005 0.36992791 0.75079429 -4.7002468 -0.00016990489 -9.901054e-05 0.19784011 0.0091984496
151333333333.33 0.27255765 0.3469924 0.30780375 -4.8157797 -0.00020379337 -8.4446045e-05 0.19706583 -0.0034940988
151400000000 0.29608303 0.32329643 -0.12329507 -4.8309298 -0.00021045552 -6.6294e-05 0.19522594 -0.014845684
151466666666.67 0.32973036 0.30321673 -0.61718625 -4.8224936 -0.00019797862 -6.0080165e-05 0.19100733 -0.026752777
151533333333.33 0.34570464 0.27738631 -1.098819 -4.7717242 -0.00019700543 -2.6917463e-05 0.18713447 -0.038677149
151600000000 0.37180939 0.25315088 -1.5426079 -4.70016 -0.00019185602 -1.2741668e-05 0.1822461 -0.050823878
151666666666.67 0.38550645 0.22909603 -2.0001922 -4.5679755 -0.00018736579 6.0661114e-07 0.1774103 -0.061706807
151733333333.33 0.4066678 0.20175651 -2.4063203 -4.393539 -0.00020895712 2.0295651e-05 0.17009518 -0.072255388
151800000000 0.42282033 0.16663103 -2.8386326 -4.1779323 -0.00018824589 4.4370841e-05 0.16323091 -0.080474794
151866666666.67 0.42997867 0.13353607 -3.2467525 -3.9086363 -0.00017872652 5.296075e-05 0.15594198 -0.090361349
151933333333.33 0.44041857 0.10267176 -3.6270568 -3.600841 -0.00017281577 6.1932093e-05 0.1467025 -0.098502733
152000000000 0.44889587 0.064993456 -3.9975362 -3.2589972 -0.00016616269 0.00010130579 0.13893552 -0.10645472
152066666666.67 0.44625136 0.032281131 -4.2734399 -2.9331989 -0.00015715373 0.00013548604 0.13115023 -0.11179201
152133333333.33 0.45319656 -5.036965e-05 -4.5994735 -2.5451968 -0.00015178448 0.00011559061 0.12297841 -0.11864804
152200000000 0.44419351 -0.031035677 -4.8419242 -2.088294 -0.00012474364 0.00012024152 0.11445706 -0.12443349
152266666666.67 0.44379559 -0.057420626 -5.0548244 -1.6434292 -0.0001313293 0.00014954587 0.10405195 -0.12876812
152333333333.33 0.44275367 -0.093066871 -5.2142673 -1.1433179 -0.00012183642 0.00015599701 0.093966827 -0.13177939
152400000000 0.42630979 -0.12541318 -5.357183 -0.67296863 -8.5940948e-05 0.00016375093 0.085046887 -0.13628991
152466666666.67 0.42211133 -0.16218817 -5.4024777 -0.17890382 -6.5667286e-05 0.00018583264 0.075614132 -0.13784933
152533333333.33 0.4083145 -0.193693 -5.4682035 0.36346054 -3.9706778e-05 0.00017538341 0.065292358 -0.14051029
152600000000 0.38687533 -0.21890517 -5.4142084 0.93319869 -5.6635348e-05 0.00020524808 0.055347368 -0.14202034
152666666666.67 0.36741388 -0.25089338 -5.3613858 1.4196631 -3.8985636e-06 0.00019629434 0.045687683 -0.14186481
152733333333.33 0.35073736 -0.27805942 -5.254024 1.9414575 7.1925697e-06 0.0001781021 0.036138758 -0.14164798
152800000000 0.32508141 -0.30201203 -5.0682049 2.4940696 2.3381435e-06 0.00020084533 0.026369102 -0.14148246
152866666666.67 0.30169713 -0.32414222 -4.8541822 2.9565291 4.5457527e-05 0.00016991988 0.017271116 -0.13988319
152933333333.33 0.2658236 -0.34042776 -4.5792942 3.4206395 5.0911396e-05 0.0001557689 0.0083183944 -0.13829996
153000000000 0.24572274 -0.36510485 -4.2629352 3.8908799 7.797475e-05 0.00015603787 -0.00063872151 -0.13441803
153066666666.67 0.22003354 -0.37873158 -3.9214005 4.3062172 7.3206684e-05 0.00016049545 -0.0083769225 -0.13236354
153133333333.33 0.18576738 -0.39496747 -3.5032277 4.6999974 6.3109779e-05 0.00015872379 -0.016552009 -0.12813553
153200000000 0.14496201 -0.40366209 -3.0465598 5.0506506 0.00010046839 0.00012820735 -0.024480674 -0.12451774
153266666666.67 0.11936061 -0.41848153 -2.5643158 5.3659849 0.00014264454 0.00013619172 -0.030782685 -0.11899509
153333333333.33 0.090111986 -0.42255104 -2.0940228 5.5851636 0.00011455077 0.00012292166 -0.036880612 -0.11437093
153400000000 0.054418296 -0.42575112 -1.5590529 5.8320494 0.00013048691 9.2567658e-05 -0.042974044 -0.10921058
153466666666.67 0.017784536 -0.42825639 -1.0443372 5.9923534 0.00014909744 9.9445722e-05 -0.048077326 -0.10391251
153533333333.33 -0.011681676 -0.42665493 -0.45538354 6.1130314 0.00012429547 3.7944035e-05 -0.053607397 -0.098494247
153600000000 -0.0445375 -0.41585904 0.15840173 6.1511188 0.00015658484 5.0463466e-05 -0.058969859 -0.09243311
153666666666.67 -0.079041481 -0.41136202 0.72361952 6.1758118 0.00013755637 4.6185443e-05 -0.062591396 -0.087477796
153733333333.33 -0.11165218 -0.40188646 1.3510156 6.1274471 0.00014737908 3.0242922e-05 -0.066001534 -0.081039369
153800000000 -0.14154272 -0.38951367 1.9602723 6.0294976 0.00013739796 3.8662703e-05 -0.069784418 -0.074841559
153866666666.67 -0.16844493 -0.37676165 2.5219846 5.8489003 0.00014936847 1.0352152e-05 -0.072020471 -0.068369523
153933333333.33 -0.19743578 -0.35654426 3.6419499 5.269598 0.00012070188 -1.3509147e-05 -0.07481055 -0.061652467
154000000000 -0.22385612 -0.33620301 4.1981258 4.8919406 0.00013408603 -8.8950619e-06 -0.076494165 -0.055316061
154066666666.67 -0.25135949 -0.31470102 4.6981955 4.5324917 0.00012361145 -1.9947289e-05 -0.07808394 -0.048374295
154133333333.33 -0.26916048 -0.28908831 5.1326728 4.0705147 9.5886746e-05 -2.4155899e-05 -0.078184851 -0.041421864
154200000000 -0.29446083 -0.26722109 5.535162 3.5937102 0.00012777628 -4.1109219e-05 -0.077679731 -0.035508499
154266666666.67 -0.30938852 -0.24431325 5.8802643 3.0865693 0.00012706747 -6.142084e-05 -0.07750684 -0.028934425
154333333333.33 -0.32921866 -0.21420437 6.1994343 2.5030923 0.00011016773 -3.110911e-05 -0.076266825 -0.023037903
154400000000 -0.34399331 -0.18382142 6.4346123 1.9174759 8.8333458e-05 -5.7407975e-05 -0.075023383 -0.017374491
154466666666.67 -0.357434 -0.15758257 6.6644912 1.3043292 8.051152e-05 -6.818174e-05 -0.074110299 -0.011150019
154533333333.33 -0.36436021 -0.12581229 6.8018379 0.69544244 6.188549e-05 -7.6434691e-05 -0.072409287 -0.0060805976
154600000000 -0.37101549 -0.09584365 6.8884721 -0.0023958683 7.3402647e-05 -7.9695586e-05 -0.069890782 -0.00084823929
154666666666.67 -0.37589633 -0.064257234 6.8735056 -0.67569637 6.3706859e-05 -7.4933436e-05 -0.06754709 0.0038352869
154733333333.33 -0.37513548 -0.035656229 6.8261948 -1.3341839 6.1371196e-05 -7.894318e-05 -0.065014668 0.0083132889
154800000000 -0.37498224 -0.0015347302 6.7359447 -1.9741685 5.0182651e-05 -7.5907461e-05 -0.062391646 0.012784362
154866666666.67 -0.36895883 0.029522348 6.5294266 -2.6106639 4.3568896e-05 -7.9701371e-05 -0.059427515 0.01713068
154933333333.33 -0.36456886 0.06301105 6.2397885 -3.3186653 4.0987048e-05 -7.9572237e-05 -0.056182705 0.020656098
155000000000 -0.35808334 0.093326852 6.0075493 -3.9317651 9.0454196e-06 -8.1884857e-05 -0.052734654 0.024290048
155066666666.67 -0.34253171 0.11714876 5.5897083 -4.4918766 1.5024758e-05 -9.6407341e-05 -0.048976328 0.027713483
155133333333.33 -0.33416635 0.1490504 5.2074599 -5.008224 1.2952946e-05 -9.7306416e-05 -0.044795923 0.030785915
155200000000 -0.31490046 0.17429207 4.6766052 -5.5933442 8.4716739e-06 -8.2345337e-05 -0.041283596 0.033794623
155266666666.67 -0.30003831 0.1967061 4.1724343 -6.0492892 -1.1664843e-05 -7.78756e-05 -0.036940537 0.036158741
155333333333.33 -0.27571556 0.21990392 3.556077 -6.470778 3.9469342e-07 -8.4863568e-05 -0.032332994 0.038372952
155400000000 -0.25512201 0.24526763 2.9484658 -6.806694 -1.633102e-05 -8.6173408e-05 -0.027911194 0.039536927
155466666666.67 -0.23053257 0.26588896 2.2526193 -7.1126723 -1.4113522e-05 -6.2016559e-05 -0.023276957 0.041100144
155533333333.33 -0.20595449 0.27990577 1.5708132 -7.3759861 2.1044543e-06 -7.2861279e-05 -0.019289374 0.041843675
155600000000 -0.17945102 0.2961112 0.87398297 -7.5412316 -1.7508139e-05 -7.277773e-05 -0.014875853 0.042438671
155666666666.67 -0.15278608 0.30759719 0.13904691 -7.6422539 -2.1200023e-05 -6.2690524e-05 -0.010168056 0.042550832
155733333333.33 -0.12288184 0.31885359 -0.66118151 -7.632823 -1.6192671e-05 -6.2124382e-05 -0.0057290602 0.042396877
155800000000 -0.095148012 0.32553786 -1.3777392 -7.607758 -3.8728322e-06 -7.1640941e-05 -0.001666436 0.042298734
155866666666.67 -0.068011262 0.33534831 -2.1107795 -7.5098138 -1.3208105e-05 -6.2280298e-05 0.0025734203 0.041765787
155933333333.33 -0.039930217 0.33916241 -2.8563371 -7.3077412 -2.8618913e-05 -5.5686374e-05 0.0066387709 0.040787894
156000000000 -0.0063625127 0.33507717 -3.6463013 -6.989068 -2.3019937e-05 -6.0770177e-05 0.010443103 0.039557405
156066666666.67 0.022671601 0.33462313 -4.3061738 -6.6558619 -3.5772158e-05 -5.5448229e-05 0.014704657 0.038559623
156133333333.33 0.050618067 0.32922369 -4.9129152 -6.2087154 -3.2835702e-05 -5.1797673e-05 0.018572887 0.036955386
156200000000 0.079439104 0.3245295 -5.5495605 -5.7699275 -3.9903709e-05 -4.9840251e-05 0.022305373 0.035026994
156266666666.67 0.10894451 0.31512502 -6.1311083 -5.2437272 -4.4399363e-05 -7.1221359e-05 0.026065579 0.032982323
156333333333.33 0.13175875 0.305471 -6.6103129 -4.637907 -5.4949523e-05 -6.459486e-05 0.03020088 0.030744191
156400000000 0.15991184 0.29105014 -7.0625868 -4.0004826 -3.9932773e-05 -4.8835525e-05 0.033532131 0.027901335
156466666666.67 0.18050432 0.27416834 -7.4670582 -3.3403673 -3.8681195e-05 -6.2964151e-05 0.036904864 0.025096834
156533333333.33 0.20290074 0.25795561 -7.8293791 -2.6255898 -2.9453018e-05 -5.7828282e-05 0.039650243 0.022102302
156600000000 0.2243731 0.23777074 -8.0356054 -1.828788 -3.4933597e-05 -3.8794551e-05 0.042311445 0.018502966
156666666666.67 0.24259266 0.21703833 -8.2215385 -1.0186839 -5.4731077e-05 -5.4751843e-05 0.044852182 0.014920956
156733333333.33 0.26584163 0.19634697 -8.3552141 -0.20910299 -4.4119504e-05 -3.3546734e-05 0.047270164 0.011290141
156800000000 0.27855301 0.17241225 -8.3632565 0.59913492 -3.4323009e-05 -5.3866712e-05 0.04903388 0.0073321257
156866666666.67 0.28974208 0.14661635 -8.3294525 1.3930881 -4.4222717e-05 -4.5264751e-05 0.050549652 0.0036446862
156933333333.33 0.30664366 0.11920968 -8.1462641 2.194128 -6.4064327e-05 -4.7987669e-05 0.051680081 -0.00076265261
157000000000 0.31281981 0.095748357 -7.9584708 2.9753008 -5.8001147e-05 -5.4867684e-05 0.052890271 -0.0045577753
157066666666.67 0.31904754 0.067675807 -7.656867 3.7581415 -7.43731e-05 -3.348921e-05 0.053728435 -0.0086168814
157133333333.33 0.32242963 0.039963029 -7.3129654 4.4841619 -8.1361235e-05 -2.6190426e-05 0.054562688 -0.013205912
157200000000 0.32283425 0.014416844 -6.8705974 5.2331066 -5.9909456e-05 -2.188179e-05 0.055054337 -0.01723345
157266666666.67 0.32547346 -0.014646243 -6.3482952 5.8947062 -7.5618627e-05 -9.0399672e-06 0.055542298 -0.021761233
157333333333.33 0.32202572 -0.0425345 -5.7469349 6.5405469 -6.9095637e-05 -1.6775826e-05 0.05521968 -0.02596415
157400000000 0.31883717 -0.069081806 -5.0952797 7.0730228 -0.00011267183 -8.9042078e-06 0.05456356 -0.030894239
157466666666.67 0.31151208 -0.095440313 -4.4495015 7.5527992 -0.00010916057 -1.517534e-05 0.054271471 -0.035410017
157533333333.33 0.29950175 -0.12118813 -3.6743734 7.9635592 -0.00011898446 -3.0884839e-05 0.053089999 -0.040157668
157600000000 0.28988624 -0.15806928 -2.6203163 8.4611454 -0.00011061569 1.7003658e-05 0.051655483 -0.044750683
157666666666.67 0.27004224 -0.18222794 -1.7156303 8.6735716 -0.00011012576 2.2689494e-05 0.049944811 -0.049566247
157733333333.33 0.25745592 -0.20650405 -0.82590604 8.8625937 -0.00010154308 3.1773478e-05 0.047809038 -0.054013856
157800000000 0.24191621 -0.22890794 0.054725409 8.9220905 -0.00010801489 1.7251019e-05 0.045267329 -0.058370739
157866666666.67 0.21826802 -0.24376203 0.95871747 8.9233904 -0.00012209032 3.8004066e-05 0.042575724 -0.063086726
157933333333.33 0.19825584 -0.26137641 1.7873976 8.8105764 -0.00013098102 4.0313964e-05 0.039770544 -0.067198679
158000000000 0.17634496 -0.27523622 2.5968041 8.6308527 -0.00012634655 4.8100148e-05 0.036015555 -0.071355663
158066666666.67 0.15274905 -0.29254356 3.4746361 8.3873081 -0.00011140528 6.6551787e-05 0.032502759 -0.07509318
158133333333.33 0.1301598 -0.30250236 4.2610292 8.0545692 -0.00012266067 5.9931532e-05 0.028296363 -0.078763098
158200000000 0.10788905 -0.30895075 5.0022149 7.615006 -0.00010296072 8.8384601e-05 0.024468735 -0.082057111
158266666666.67 0.082659185 -0.31556711 5.7129412 7.1237268 -9.9194367e-05 9.8211152e-05 0.020003006 -0.085417017
158333333333.33 0.054214738 -0.32287291 6.4299126 6.5689201 -9.0949805e-05 0.00010349792 0.014666826 -0.088179722
158400000000 0.030344389 -0.32367402 7.0614948 5.9180508 -0.00010148656 0.00014418767 0.0096270358 -0.090815827
158466666666.67 0.0065520406 -0.32816273 7.5878811 5.2707386 -6.7758185e-05 0.00012959188 0.0043192431 -0.093155146
158533333333.33 -0.018515706 -0.32825008 8.0851011 4.5666919 -5.6806784e-05 0.00016130593 -0.00097904727 -0.09509822
158600000000 -0.042527266 -0.32753786 8.5077658 3.8131621 -2.536914e-05 0.00012903583 -0.0069782101 -0.096747071
158666666666.67 -0.06403622 -0.32104859 8.8700304 2.935415 -3.5642221e-05 0.00014799516 -0.013342492 -0.098223746
158733333333.33 -0.087678656 -0.31758487 9.1251564 2.1770899 -3.5685152e-05 0.000185283 -0.019545499 -0.099055931
158800000000 -0.1123582 -0.30985785 9.3265476 1.2452631 -1.7229569e-05 0.000171047 -0.025596328 -0.099791393
158866666666.67 -0.13931468 -0.30115721 9.4397526 0.37915564 8.1984763e-07 0.00016469788 -0.032172255 -0.099804223
158933333333.33 -0.15725493 -0.28636524 9.4568682 -0.51632535 1.1382033e-05 0.00018732964 -0.038922749 -0.099266991
159000000000 -0.17875594 -0.27280891 9.4020176 -1.4171224 3.0391973e-05 0.00016592009 -0.045675725 -0.098480038
159066666666.67 -0.19779366 -0.26111037 9.2699432 -2.3128679 7.0468588e-05 0.00015785324 -0.052219629 -0.097062625
159133333333.33 -0.21657319 -0.24709032 9.0607729 -3.195745 7.1412942e-05 0.0001847962 -0.059049904 -0.095406704
159200000000 -0.23597482 -0.22882842 8.7040386 -4.0101523 9.9215904e-05 0.00016247976 -0.06539581 -0.092545457
159266666666.67 -0.24776123 -0.21133518 8.3467817 -4.8019662 0.00010071897 0.00015827292 -0.071742311 -0.089719743
159333333333.33 -0.26351002 -0.19243678 7.9016585 -5.5503154 0.00010038009 0.00017085669 -0.077991769 -0.086078912
159400000000 -0.27458042 -0.17217925 7.3523793 -6.290544 0.00013382596 0.00014903201 -0.083987996 -0.08263737
159466666666.67 -0.2873601 -0.14950162 6.7710385 -6.9307075 0.00014148101 0.00013010869 -0.090499587 -0.078232273
159533333333.33 -0.29423308 -0.13565245 6.1851783 -7.4951935 0.00015062311 0.00012904062 -0.095688283 -0.073815644
159600000000 -0.30328226 -0.1135828 5.4881639 -8.0990057 0.00017300031 7.9595979e-05 -0.10163433 -0.06853909
159666666666.67 -0.30738384 -0.093139529 4.7347941 -8.5761919 0.00019910438 8.1674421e-05 -0.10619873 -0.063552648
159733333333.33 -0.31438431 -0.066937387 3.8854275 -9.0412998 0.00019517003 6.4647749e-05 -0.11113596 -0.057259988
159800000000 -0.31910151 -0.044981148 2.9931402 -9.3843002 0.00019366031 4.3643129e-05 -0.11546001 -0.051106472
159866666666.67 -0.32006717 -0.025217429 2.120939 -9.6427126 0.00020774845 4.3672328e-05 -0.11947937 -0.044558182
159933333333.33 -0.31760871 -0.0024368688 1.2323587 -9.8474255 0.00021060981 3.1314557e-05 -0.12304659 -0.037809774
160000000000 -0.31796968 0.019339148 0.27367806 -9.9272203 0.00019941396 9.9257877e-06 -0.12587686 -0.030725105
160066666666.67 -0.31324559 0.047352046 -0.67985058 -9.9215927 0.0002054322 -3.3199685e-05 -0.12896866 -0.022694807
160133333333.33 -0.30705908 0.066487588 -1.6257424 -9.8079929 0.00020287839 -2.2849475e-05 -0.13027249 -0.015073556
160200000000 -0.30073127 0.089568764 -2.5944841 -9.6899281 0.00019206856 -4.3958178e-05 -0.13227521 -0.0068157949
160266666666.67 -0.29427722 0.10937233 -3.4793329 -9.4488049 0.00020536085 -0.0001002418 -0.13317201 0.00095235929
160333333333.33 -0.28305981 0.12645745 -4.3568411 -9.1466551 0.0001628976 -0.0001152421 -0.13392146 0.0090144742
160400000000 -0.27295467 0.14927667 -5.2579784 -8.6986189 0.00016537096 -0.00013727359 -0.13347997 0.01754256
160466666666.67 -0.26031077 0.16697045 -6.0381346 -8.1863003 0.00015475796 -0.00013253919 -0.13248777 0.025585357
160533333333.33 -0.24705848 0.18251011 -6.7913022 -7.6609478 0.00015833569 -0.0001464758 -0.13122132 0.033939049
160600000000 -0.23150462 0.19573192 -7.4629645 -6.9986305 0.00012400796 -0.00015752198 -0.12941507 0.042357873
160666666666.67 -0.21544817 0.21481316 -8.1404791 -6.246294 0.00012021235 -0.00017691946 -0.12678908 0.050839841
160733333333.33 -0.19514564 0.22764254 -8.7254944 -5.4778337 0.00010735105 -0.00017710778 -0.12374152 0.058593202
160800000000 -0.18013993 0.23673452 -9.2118912 -4.7209291 8.2775914e-05 -0.00020592866 -0.12085884 0.065946631
160866666666.67 -0.16061352 0.24861746 -9.6334982 -3.8017385 5.3783686e-05 -0.00019550645 -0.11662399 0.073945299
160933333333.33 -0.14270996 0.25929135 -10.014211 -2.9029222 4.4896005e-05 -0.00020114385 -0.11221376 0.08132486
161000000000 -0.12222324 0.26557648 -10.294191 -1.9893236 3.1149393e-05 -0.00019762387 -0.10723723 0.08818011
161066666666.67 -0.10125773 0.27242053 -10.44101 -0.97884315 -2.2996628e-06 -0.00021351059 -0.10137074 0.094922222
161133333333.33 -0.079663172 0.27709648 -10.51902 -0.021718025 -4.2232132e-06 -0.00020353738 -0.095606662 0.10118522
161200000000 -0.059695609 0.27710241 -10.514409 1.0102444 -2.6166257e-05 -0.00020572587 -0.089185491 0.10668112
161266666666.67 -0.039611362 0.2802141 -10.420488 1.9700322 -4.3625092e-05 -0.00019400199 -0.082751483 0.111999
161333333333.33 -0.018551975 0.2816669 -10.208446 2.9253573 -7.5032898e-05 -0.00019401949 -0.075103313 0.11698519
161400000000 0.0021069441 0.27902284 -9.9235821 3.8905971 -8.9219437e-05 -0.00016898717 -0.067649417 0.12146532
161466666666.67 0.019463114 0.27628407 -9.5516539 4.7721405 -0.00011062009 -0.00016564257 -0.059628673 0.12502937
161533333333.33 0.042857878 0.27370816 -9.0786924 5.6832104 -0.00011832034 -0.00017514687 -0.051206999 0.12848198
161600000000 0.058010977 0.26617596 -8.590251 6.5279832 -0.00013901058 -0.00015616801 -0.043164935 0.13136093
161666666666.67 0.075833872 0.25912702 -7.9044981 7.3094463 -0.00013618986 -0.00012995051 -0.034320328 0.13367574
161733333333.33 0.094546124 0.25106695 -7.2313566 8.036541 -0.00016273279 -0.00012790604 -0.025486384 0.13498822
161800000000 0.11297291 0.24344607 -6.4766755 8.7226782 -0.00016993568 -0.00012244939 -0.016728792 0.1360437
161866666666.67 0.12835421 0.23012203 -5.6460123 9.3280268 -0.00018212918 -0.00010444119 -0.0080482438 0.13631867
161933333333.33 0.14461374 0.21738824 -4.7611532 9.8156929 -0.00017128851 -7.8838217e-05 0.00098538399 0.13596702
162000000000 0.15646687 0.20314579 -3.8446193 10.261927 -0.00017661188 -5.73205e-05 0.0093884086 0.13551344
162066666666.67 0.16859064 0.19067571 -2.8728113 10.651808 -0.0001961674 -5.7393288e-05 0.0185026 0.13427255
162133333333.33 0.18065292 0.17208692 -1.8589449 10.887391 -0.00019833056 -2.4231907e-05 0.026861284 0.13256742
162200000000 0.18844834 0.15656124 -0.84123838 11.008124 -0.00017325391 -8.2564311e-06 0.035245456 0.12982394
162266666666.67 0.19989525 0.14168233 0.24875045 11.113382 -0.0001944699 8.9274181e-07 0.043777466 0.12689948
162333333333.33 0.20495635 0.12381659 1.2669296 11.10453 -0.00017273403 4.3380292e-05 0.052402042 0.12340415
162400000000 0.21221823 0.10994954 3.2934475 10.696255 -0.00018397736 2.4805973e-05 0.06121232 0.11852299
162466666666.67 0.21981561 0.092140548 4.4800854 10.320197 -0.00018539486 2.9211013e-05 0.069013543 0.11328924
162533333333.33 0.2217927 0.07334131 5.4923668 9.7687359 -0.0001701311 5.0191764e-05 0.075742364 0.10770519
162600000000 0.2258267 0.059275154 6.4523783 9.2312241 -0.00015590903 5.9529131e-05 0.082365341 0.10205943
162666666666.67 0.22519131 0.041317485 7.4069147 8.5561504 -0.00018418074 8.9438443e-05 0.088884108 0.095621258
162733333333.33 0.22550641 0.023145542 8.1834755 7.8338795 -0.00017160526 0.0001018965 0.094769388 0.088898703
162800000000 0.22409195 0.0050821081 8.8940401 7.092587 -0.00012434862 9.347935e-05 0.10009135 0.08239755
162866666666.67 0.22234929 -0.011784457 9.5608683 6.2839212 -0.00014009842 9.7654352e-05 0.10484329 0.074468009
162933333333.33 0.21776459 -0.02394449 10.108948 5.4035277 -0.00012783729 0.000120185 0.10927422 0.067388736
163000000000 0.21344337 -0.042777989 10.556188 4.4661674 -0.0001000402 0.00011846268 0.11288318 0.060206205
163066666666.67 0.20603822 -0.056898516 10.952898 3.5416758 -8.8958317e-05 0.00013190277 0.1160485 0.052319501
163133333333.33 0.19754419 -0.070121452 11.237621 2.5291095 -7.5547941e-05 0.00013564996 0.11883824 0.044543628
163200000000 0.18990375 -0.083892144 11.486622 1.4325459 -6.4103704e-05 0.00013307344 0.12075231 0.036229219
163266666666.67 0.17718624 -0.095056109 11.56741 0.36402261 -5.0267736e-05 0.00013855551 0.12236337 0.027205039
163333333333.33 0.16942057 -0.10889384 11.569458 -0.73396111 -6.2296174e-05 0.00015229332 0.12291325 0.018573381
163400000000 0.15583232 -0.12079502 11.430088 -1.8330199 -3.2537566e-05 0.00014435126 0.12352352 0.0099112093
163466666666.67 0.14456943 -0.13043061 11.214329 -2.9035885 -2.2338685e-05 0.00016676927 0.12295458 0.00078551471
163533333333.33 0.13496032 -0.13936524 10.916388 -3.9663525 -1.7081387e-05 0.00014706847 0.12200035 -0.008005783
163600000000 0.11965217 -0.14768837 10.54361 -5.016674 1.7443683e-05 0.00015414556 0.12040076 -0.016735833
163666666666.67 0.10947993 -0.15450378 10.037079 -6.0165997 2.256556e-05 0.00015957834 0.11825781 -0.025704749
163733333333.33 0.094674923 -0.16095519 9.4213181 -6.9426308 2.1035572e-05 0.00013182135 0.11573043 -0.03355905
163800000000 0.081157416 -0.16406696 8.7833691 -7.7851548 3.4262481e-05 0.00012437618 0.1122627 -0.042284131
163866666666.67 0.064412549 -0.16760999 7.9917822 -8.6041775 6.3761196e-05 0.00013700128 0.10809396 -0.049796335
163933333333.33 0.052802406 -0.17182581 7.1332998 -9.3461084 5.43401e-05 0.00012142064 0.10363536 -0.057262685
164000000000 0.037369113 -0.17275988 6.2714167 -10.033026 4.7505891e-05 0.00012604709 0.098866396 -0.064945005
164066666666.67 0.023913544 -0.17225333 5.2743325 -10.598149 6.0290346e-05 0.00011484613 0.093735628 -0.071724541
164133333333.33 0.012700923 -0.17206097 4.2020445 -11.068121 5.8006968e-05 9.6175114e-05 0.087586656 -0.077999324
164200000000 -0.0033273697 -0.17198488 3.140974 -11.44886 5.5998749e-05 8.8817709e-05 0.08199618 -0.083874211
164266666666.67 -0.015994228 -0.16663863 2.055779 -11.728931 8.8683715e-05 8.9493165e-05 0.075084932 -0.089877434
164333333333.33 -0.029104128 -0.16128027 0.97883916 -11.910787 0.00010084454 8.7869077e-05 0.068411238 -0.094800502
164400000000 -0.040317677 -0.15886095 -0.17494297 -12.024012 8.753725e-05 6.9388974e-05 0.061169297 -0.099619836
164466666666.67 -0.051613934 -0.15493596 -1.2925982 -11.834132 9.621615e-05 7.7670389e-05 0.05280371 -0.10209359
164533333333.33 -0.062894724 -0.14676109 -2.3851278 -11.698251 0.00011256398 6.812426e-05 0.045864433 -0.10593712
164600000000 -0.074378952 -0.1394694 -3.5333581 -11.472515 9.5761468e-05 5.6316385e-05 0.037967421 -0.10933042
164666666666.67 -0.082067944 -0.13321157 -4.6394925 -11.090595 0.00010236328 5.9795631e-05 0.028877232 -0.11089349
164733333333.33 -0.092559807 -0.12502813 -5.5555725 -10.656287 9.0405447e-05 7.2316332e-05 0.021183653 -0.11173582
164800000000 -0.10015629 -0.11652121 -6.5959673 -10.064451 0.00011598126 3.9085204e-05 0.012443323 -0.11285906
164866666666.67 -0.10799596 -0.10643812 -7.5759683 -9.3795118 0.00010153918 1.4827894e-05 0.0036477051 -0.11335529
164933333333.33 -0.11152367 -0.09970618 -8.395854 -8.6293955 9.7601784e-05 2.2890636e-05 -0.0047371015 -0.11258616
165000000000 -0.11990219 -0.087281793 -9.2073822 -7.7875309 0.00010023452 1.0319951e-05 -0.013324863 -0.11182922
165066666666.67 -0.1232722 -0.075835802 -9.9300642 -6.8785896 0.00010905172 5.3934964e-06 -0.021856345 -0.11007691
165133333333.33 -0.12713364 -0.064962432 -10.558434 -5.8859329 0.00010487307 -6.287155e-07 -0.029611599 -0.10778765
165200000000 -0.12746252 -0.054309502 -11.077584 -4.910718 0.00010366504 -9.9469853e-06 -0.037821643 -0.10496822
165266666666.67 -0.13127786 -0.043867297 -11.501419 -3.8236258 9.7355136e-05 -2.1009397e-05 -0.045266964 -0.10149591
165333333333.33 -0.13291274 -0.033579793 -11.777853 -2.7166281 0.00010405717 -2.5168991e-05 -0.05242195 -0.097700983
165400000000 -0.13470602 -0.023325831 -12.043536 -1.5233134 0.00011467744 -2.929967e-05 -0.059517805 -0.09340059
165466666666.67 -0.13276422 -0.011348892 -12.120523 -0.37378979 0.00010991663 -3.5941779e-05 -0.065900549 -0.088515185
165533333333.33 -0.13061303 -0.00092279539 -12.124026 0.75439191 8.2402337e-05 -5.1720046e-05 -0.072061494 -0.083414815
165600000000 -0.13311452 0.0079831071 -11.948486 1.8493487 8.4544088e-05 -4.3256303e-05 -0.077861413 -0.077430382
165666666666.67 -0.12884706 0.021367304 -11.718725 2.9766145 8.5379652e-05 -6.4381697e-05 -0.083122611 -0.071200125
165733333333.33 -0.12616129 0.029306211 -11.40245 4.0857148 0.00010000668 -7.8626988e-05 -0.087714717 -0.064840138
165800000000 -0.12197793 0.036576398 -11.007704 5.11166 7.0387876e-05 -6.1688668e-05 -0.092021011 -0.058420785
165866666666.67 -0.11753433 0.044170562 -10.459143 6.1143475 7.715197e-05 -6.5255059e-05 -0.096095584 -0.050993331
165933333333.33 -0.11388511 0.0540471 -9.868103 7.1243858 9.3468392e-05 -8.1220576e-05 -0.099905118 -0.043638732
166000000000 -0.10640883 0.061442837 -9.1688347 7.9679966 6.5790227e-05 -6.4942855e-05 -0.10221586 -0.036371235
166066666666.67 -0.10167325 0.067980081 -8.3915348 8.7996073 6.3270105e-05 -0.00010054801 -0.10461047 -0.028828412
166133333333.33 -0.095447637 0.074013434 -7.5339336 9.5570183 6.4688997e-05 -9.7291413e-05 -0.10585207 -0.021420445
166200000000 -0.088521816 0.080655046 -6.548512 10.254457 3.7897204e-05 -9.5706753e-05 -0.10724668 -0.012932032
166266666666.67 -0.080377914 0.087370358 -5.5880136 10.822371 5.6391149e-05 -9.7991076e-05 -0.10769029 -0.0049862899
166333333333.33 -0.074372806 0.091231011 -4.5906582 11.343401 4.1121377e-05 -9.4821182e-05 -0.10775676 0.0021054856
166400000000 -0.066064611 0.095292524 -3.5624981 11.700433 2.4795283e-05 -0.00010470331 -0.10704185 0.010207346
166466666666.67 -0.059842266 0.097539641 -2.4452562 11.997627 2.7639686e-05 -9.710397e-05 -0.1063246 0.017681036
166533333333.33 -0.050465532 0.10033172 -1.2985566 12.181736 2.0194953e-05 -0.00012550426 -0.10416751 0.025188467
166600000000 -0.040777147 0.099477388 -0.1687336 12.280404 1.4913661e-05 -0.00011522936 -0.10204355 0.032426033
166666666666.67 -0.033070914 0.099447839 1.006376 12.211255 1.434709e-05 -9.804716e-05 -0.099265605 0.039531384
166733333333.33 -0.023369921 0.099840693 2.1129832 12.101361 -1.3043047e-05 -0.0001032713 -0.095613517 0.046219379
166800000000 -0.01831593 0.10016145 3.2301049 11.844029 -1.1676966e-06 -0.00010082369 -0.092077203 0.052658156
166866666666.67 -0.0089639984 0.10198613 4.329679 11.473376 -1.9105435e-05 -0.00010316014 -0.087342851 0.05905506
166933333333.33 -0.0033405684 0.09984789 5.4047508 11.02011 -3.5686757e-05 -0.00010153884 -0.08311826 0.065069228
167000000000 0.0055828355 0.098367073 6.4041543 10.492385 -4.3159056e-05 -7.938184e-05 -0.077725358 0.070727877
167066666666.67 0.011294967 0.093662545 7.3874941 9.8482542 -4.1679956e-05 -9.3253591e-05 -0.072210707 0.075990744
167133333333.33 0.019783724 0.09443301 8.1857109 9.121376 -4.907923e-05 -8.2727827e-05 -0.066545472 0.080743462
167200000000 0.027594486 0.089898027 9.0656853 8.346941 -3.0494815e-05 -9.9217286e-05 -0.060835347 0.084735453
167266666666.67 0.031915627 0.085723229 9.8395061 7.4440608 -6.7117595e-05 -0.00010827452 -0.054754339 0.088826992
167333333333.33 0.037203759 0.081927404 10.452113 6.5171742 -6.255733e-05 -9.5538184e-05 -0.04828915 0.092238255
167400000000 0.040951185 0.077012643 11.032057 5.5299435 -8.1375605e-05 -6.9274225e-05 -0.041446704 0.095464714
167466666666.67 0.048271127 0.071723878 11.498068 4.4894953 -8.6430482e-05 -6.6396802e-05 -0.034548245 0.097795188
167533333333.33 0.050356761 0.067613654 11.880558 3.3881192 -7.1239454e-05 -6.4849788e-05 -0.027445756 0.099725947
167600000000 0.055455543 0.063308522 12.140119 2.2537513 -0.00010352869 -5.8808255e-05 -0.020489059 0.10106796
167666666666.67 0.058221877 0.06026572 12.305578 1.1151667 -0.00010288921 -5.5780431e-05 -0.013503436 0.10171787
167733333333.33 0.061455451 0.050787255 12.356341 0.00087618828 -0.00010645868 -2.5919126e-05 -0.0068171257 0.10190956
167800000000 0.06081225 0.047938086 12.293592 -1.1147037 -0.00011195655 -3.7389036e-05 -2.7060509e-05 0.10195622
167866666666.67 0.061940163 0.043236565 12.145426 -2.3060923 -0.0001082473 -3.791579e-05 0.0070988126 0.10136249
167933333333.33 0.065355234 0.038749177 11.878702 -3.4254289 -0.00010998319 -1.6548009e-05 0.014594775 0.10001848
168000000000 0.064610682 0.031870835 11.53182 -4.4864883 -0.00011716855 -7.9145939e-06 0.020937812 0.098351859
168066666666.67 0.06395717 0.026331056 11.017714 -5.564579 -0.0001052376 -1.4011692e-05 0.027702814 0.095837995
168133333333.33 0.064414777 0.021831926 10.491133 -6.5592604 -9.806866e-05 -7.1983541e-06 0.033725813 0.093546294
168200000000 0.062689275 0.017071566 9.8173637 -7.425961 -0.00010033896 -1.0344625e-05 0.039778486 0.090078965
168266666666.67 0.060512763 0.010528866 9.0994854 -8.3091164 -0.00011268646 1.0163038e-05 0.045571141 0.087167606
168333333333.33 0.058945823 0.005979389 8.3249178 -9.0999584 -9.8291064e-05 3.4872603e-05 0.050951757 0.083374284
168400000000 0.057563074 0.0011894628 7.4207735 -9.8790865 -0.00010971374 2.466058e-05 0.056188311 0.079372309
168466666666.67 0.054329831 -0.0028951177 6.4586954 -10.518237 -9.5074014e-05 4.3641914e-05 0.061140496 0.074897707
168533333333.33 0.052828602 -0.0066697709 5.5379615 -11.047392 -9.190831e-05 4.3496446e-05 0.065798983 0.070393741
168600000000 0.050549921 -0.011106759 4.4705324 -11.48966 -0.00010108497 5.3739866e-05 0.070054762 0.065467417
168666666666.67 0.046966791 -0.012483255 3.3677306 -11.883078 -9.1504058e-05 8.0111742e-05 0.073878728 0.060450926
168733333333.33 0.04329221 -0.01438094 2.3020358 -12.137261 -6.7412919e-05 8.120024e-05 0.077211812 0.05486254
168800000000 0.041038632 -0.016342936 1.1306572 -12.286827 -7.7050623e-05 9.3576673e-05 0.080573395 0.049001362
168866666666.67 0.037619319 -0.020739958 0.0028862953 -12.316564 -6.7908375e-05 8.672574e-05 0.083059475 0.042910594
168933333333.33 0.035183903 -0.021500304 -1.1277213 -12.287021 -7.2680283e-05 8.6617139e-05 0.084674031 0.036947705
169000000000 0.031750638 -0.021257225 -2.2369401 -12.18067 -6.7627734e-05 0.00012096453 0.086575016 0.031057138
169066666666.67 0.028070318 -0.023875486 -3.3368177 -11.91328 -5.0495073e-05 0.00010779004 0.087696493 0.025064703
169133333333.33 0.027300064 -0.024868112 -4.3928165 -11.570415 -4.6287896e-05 0.00011758717 0.08838094 0.018895507
169200000000 0.023524113 -0.022966163 -5.4126358 -11.096617 -3.1210504e-05 0.00011902224 0.088653393 0.012975545
169266666666.67 0.019255195 -0.023230461 -6.4128795 -10.554382 -1.9238913e-05 0.00011677346 0.088449731 0.0071565248
169333333333.33 0.017694511 -0.022805752 -7.3974705 -9.8559113 -4.6152218e-06 0.00011297096 0.087727502 0.0015167724
169400000000 0.014451163 -0.021368423 -8.185092 -9.2221003 5.0802009e-07 0.00010013345 0.086818494 -0.0042975266
169466666666.67 0.011689162 -0.019286716 -9.0631361 -8.3419847 9.2055416e-08 0.00010307365 0.085665643 -0.010546759
169533333333.33 0.0092682512 -0.018145839 -9.7672844 -7.493216 1.392503e-05 0.00010541228 0.083715908 -0.015661396
169600000000 0.0077779433 -0.017072348 -10.387826 -6.6010118 2.3952711e-05 0.00011809367 0.081910118 -0.021034403
169666666666.67 0.0050296192 -0.014546523 -10.936625 -5.6506338 2.5514782e-05 0.00010429606 0.079710826 -0.025957247
169733333333.33 0.0028681504 -0.013574758 -11.384117 -4.6013823 3.7243495e-05 0.00010165595 0.076897688 -0.030978221
169800000000 0.00061822822 -0.010745795 -11.766225 -3.555366 5.1290852e-05 9.0831818e-05 0.073643021 -0.035929725
169866666666.67 0.00079658348 -0.0081382096 -12.042437 -2.4491882 4.9042526e-05 7.8285193e-05 0.070126779 -0.04038851
169933333333.33 0.00027366128 -0.0049120276 -12.185249 -1.4052476 8.2824554e-05 7.5603872e-05 0.066266939 -0.044132244
170000000000 -0.0010570911 -0.0023510638 -12.255568 -0.24025583 5.4511598e-05 9.7911121e-05 0.062486485 -0.047664311
170066666666.67 -0.0008614604 -0.0014301518 -12.213144 0.77506256 7.6268348e-05 8.2097358e-05 0.05830824 -0.050605193
170133333333.33 -0.0024206827 0.00021154962 -12.077553 1.9426576 8.5661792e-05 7.4041876e-05 0.054141991 -0.053575732
170200000000 -0.00046511518 0.0041831904 -11.820526 3.0103669 9.2728544e-05 5.975971e-05 0.049347214 -0.056042984
170266666666.67 0.00053334783 0.0049891961 -11.521672 4.1194959 0.00010008052 7.1946575e-05 0.044749603 -0.058208771
170333333333.33 0.0026555944 0.0071068583 -11.076762 5.1304684 0.00010195697 5.9528968e-05 0.040777266 -0.05988108
170400000000 0.001745349 0.0092421835 -10.586795 6.1463838 0.00010731956 2.614129e-05 0.03623566 -0.061343633
170466666666.67 0.004063854 0.012234824 -9.9307098 7.0510979 0.00010671034 3.8167687e-05 0.031851385 -0.061992463
170533333333.33 0.0044098096 0.011137289 -9.2507601 7.901557 0.00011113468 2.7265207e-05 0.028112246 -0.062660895
170600000000 0.010498007 0.013699934 -8.4366369 8.747963 0.00011633183 2.5964924e-05 0.024197375 -0.06284909
170666666666.67 0.010313408 0.016213946 -7.6217451 9.4837971 0.00010752234 9.2582486e-06 0.019620609 -0.06322816
170733333333.33 0.012714502 0.015863515 -6.6621523 10.200237 9.7096519e-05 1.2113596e-06 0.015042329 -0.063204147
170800000000 0.013608797 0.016375016 -5.6278801 10.735502 9.630085e-05 -8.1456783e-06 0.010284099 -0.06287282
170866666666.67 0.016055185 0.015545619 -4.6492934 11.197866 9.4401374e-05 -1.3644254e-05 0.0051456932 -0.062144976
170933333333.33 0.019112471 0.015672576 -3.6836152 11.554457 8.9889894e-05 -2.8605426e-05 0.00030684896 -0.061037969
171000000000 0.020567531 0.014434305 -2.6381738 11.818607 9.6993972e-05 -4.2200045e-05 -0.0044973549 -0.059529714
171066666666.67 0.02489965 0.014357703 -1.5285084 12.017801 8.9376517e-05 -5.1013623e-05 -0.0088028982 -0.057657126
171133333333.33 0.028989865 0.014273984 -0.553581 12.056662 7.4969554e-05 -4.9030197e-05 -0.012362155 -0.055330753
171200000000 0.031499997 0.012699997 0.5391593 12.083431 7.3647156e-05 -6.7577545e-05 -0.016077291 -0.053232323
171266666666.67 0.033080027 0.011497963 1.6867044 11.959708 7.0486072e-05 -5.8945327e-05 -0.019519018 -0.050656993
171333333333.33 0.036425427 0.0082432386 2.7168756 11.759722 6.6191154e-05 -6.4649044e-05 -0.022318566 -0.047971942
171400000000 0.03908788 0.0088068172 3.7802351 11.443915 5.1828327e-05 -7.2923242e-05 -0.0250856 -0.044777703
171466666666.67 0.041217778 0.0018292984 4.8667459 11.045333 5.0631494e-05 -6.8976777e-05 -0.027490802 -0.041538358
171533333333.33 0.04547837 7.0936978e-05 5.79743 10.59061 4.9596187e-05 -9.9023273e-05 -0.029885789 -0.038215406
171600000000 0.047786187 -0.001439644 6.7090364 9.9681416 4.1186657e-05 -8.6179614e-05 -0.031417809 -0.034275591
171666666666.67 0.047888543 -0.005244663 7.4505682 9.3112526 2.4224068e-05 -9.1603615e-05 -0.032311965 -0.030734682
171733333333.33 0.048997536 -0.0096190125 8.2876863 8.6215172 2.4941479e-05 -8.2412647e-05 -0.033474505 -0.027428161
171800000000 0.050808776 -0.013111936 9.0116138 7.8834105 -8.3312079e-06 -7.8040815e-05 -0.034306079 -0.02419737
171866666666.67 0.053738698 -0.013828784 9.7301855 6.9097605 9.4226234e-06 -8.0651822e-05 -0.035253353 -0.020623758
171933333333.33 0.051519573 -0.01725959 10.304086 6.02244 4.7662079e-06 -9.6315329e-05 -0.035753578 -0.017176017
172000000000 0.052725613 -0.02183371 10.783267 5.1007509 -1.0007789e-05 -7.6169046e-05 -0.035734598 -0.013649061
172066666666.67 0.051120598 -0.026593305 11.202482 4.0360508 -2.8941786e-05 -7.9391488e-05 -0.035547741 -0.010307013
172133333333.33 0.053332962 -0.027845334 11.457644 3.043237 -2.6416626e-05 -7.9254532e-05 -0.034910098 -0.0069176275
172200000000 0.048137955 -0.033511102 11.733478 1.9370186 -3.0278085e-05 -5.6537145e-05 -0.034093902 -0.0038039512
172266666666.67 0.046963349 -0.036864936 11.8679 0.88563776 -4.6643196e-05 -5.686887e-05 -0.032912876 -0.00071283896
172333333333.33 0.045193307 -0.040208194 11.87642 -0.16833591 -3.561172e-05 -7.7420467e-05 -0.031421885 0.0022770111
172400000000 0.042876203 -0.045292806 11.820325 -1.2661762 -4.7008554e-05 -6.428847e-05 -0.030031445 0.0051904358
172466666666.67 0.041542392 -0.047179818 11.67725 -2.3636265 -6.1724233e-05 -5.7359575e-05 -0.028105494 0.0079593677
172533333333.33 0.037228666 -0.052087512 11.371922 -3.4119358 -6.4205953e-05 -2.7366985e-05 -0.026165999 0.01030595
172600000000 0.032688603 -0.057672836 10.946847 -4.3781395 -5.7475168e-05 -2.9384075e-05 -0.02395821 0.012623988
172666666666.67 0.029432949 -0.060234331 10.478125 -5.3471456 -8.7451517e-05 -3.5136334e-05 -0.021505743 0.014657174
172733333333.33 0.025892232 -0.062871277 9.9838486 -6.2232819 -6.3145199e-05 -2.5498905e-05 -0.019094955 0.016283341
172800000000 0.023520697 -0.064766705 9.4001503 -7.1164098 -7.4653377e-05 8.6473119e-07 -0.016645428 0.017792527
172866666666.67 0.017448284 -0.067196839 8.7127924 -7.8650694 -5.3333031e-05 -5.1148254e-06 -0.014043416 0.019183619
172933333333.33 0.012755569 -0.070456967 7.8987741 -8.622386 -7.9743797e-05 -5.0210037e-06 -0.011161336 0.020239089
173000000000 0.0097938804 -0.069992773 7.1514759 -9.2603903 -7.1145718e-05 -4.4499475e-06 -0.0084792571 0.021076437
173066666666.67 0.0029407814 -0.074171297 6.2742453 -9.8747892 -7.3949624e-05 9.0649264e-06 -0.0057456745 0.021650499
173133333333.33 -0.0015159994 -0.07255508 5.2515907 -10.348356 -5.1486059e-05 2.2761877e-05 -0.003008645 0.021808375
173200000000 -0.0056832489 -0.075817257 4.2487731 -10.770585 -5.967465e-05 4.4177999e-05 -0.00021937364 0.021595154
173266666666.67 -0.0095982105 -0.07639645 3.2689066 -11.124443 -6.0139566e-05 2.166076e-05 0.0025089243 0.021481745
173333333333.33 -0.016865974 -0.073704921 2.2582459 -11.379274 -5.0849336e-05 1.7020444e-05 0.0053377091 0.020765997
173400000000 -0.020548884 -0.074552543 1.1995591 -11.516795 -4.3378128e-05 3.9570441e-05 0.0080366321 0.019977702
173466666666.67 -0.028221272 -0.072300017 0.17800808 -11.594171 -5.2979361e-05 4.0693583e-05 0.010719097 0.019282546
173533333333.33 -0.03249158 -0.072786808 -0.8555913 -11.51412 -2.0801957e-05 6.6501067e-05 0.013177747 0.018180938
173600000000 -0.037019871 -0.068048507 -1.8357716 -11.339571 -1.7449824e-05 4.7628717e-05 0.015196183 0.01671619
173666666666.67 -0.039704248 -0.066472344 -2.8095593 -11.164574 -1.5373655e-05 5.7238223e-05 0.017335199 0.015208703
173733333333.33 -0.047904059 -0.062861614 -3.7619879 -10.834584 -1.6147387e-06 6.4919695e-05 0.01950757 0.013624122
173800000000 -0.054597929 -0.059215263 -4.7692146 -10.376945 -9.378201e-06 6.1238854e-05 0.021497607 0.011747982
173866666666.67 -0.057518907 -0.05426896 -5.7601604 -9.8430214 7.1573995e-06 6.0632123e-05 0.023222905 0.0096549243
173933333333.33 -0.063923821 -0.049998615 -6.6489344 -9.2240963 2.215831e-05 6.0712071e-05 0.024637509 0.0074371882
174000000000 -0.067937426 -0.042399097 -7.4242687 -8.6143856 1.7730354e-05 4.57688e-05 0.025675284 0.0054323152
174066666666.67 -0.069938101 -0.038897939 -8.2162123 -7.8703699 2.3042594e-05 4.7074005e-05 0.026837777 0.0031015323
174133333333.33 -0.074589223 -0.033240519 -8.8420248 -7.0755224 4.3653519e-05 5.2525807e-05 0.027736962 0.00084711332
174200000000 -0.075568207 -0.02541477 -9.4522028 -6.2072392 3.4004774e-05 3.6558635e-05 0.028299805 -0.0016347046
174266666666.67 -0.078154445 -0.021954093 -9.9602032 -5.3247366 3.3518802e-05 2.7538084e-05 0.028845955 -0.003945386
174333333333.33 -0.081403062 -0.012569297 -10.391979 -4.3490224 6.1400809e-05 2.9342025e-05 0.028819723 -0.0062618032
174400000000 -0.084228769 -0.0057072975 -10.724983 -3.3621249 6.7928224e-05 3.0358848e-05 0.028681327 -0.0088253021
174466666666.67 -0.083243772 0.0011254381 -10.939166 -2.4237297 6.4518754e-05 2.8467384e-06 0.028449796 -0.010824842
174533333333.33 -0.084068999 0.0069312509 -11.10334 -1.4140419 7.0299677e-05 1.7448301e-05 0.027957601 -0.013129715
174600000000 -0.083547011 0.015175305 -11.17695 -0.3675065 6.4927575e-05 -9.5533178e-06 0.027368877 -0.015564926
174666666666.67 -0.082883187 0.023817392 -11.127341 0.58364213 7.3694682e-05 -1.3710987e-05 0.026416844 -0.01761478
174733333333.33 -0.083887301 0.029739559 -11.029985 1.6434295 5.2265787e-05 -1.4776484e-05 0.025412098 -0.019854324
174800000000 -0.08038523 0.036624387 -10.748713 2.6574552 6.7837856e-05 -2.3019631e-05 0.024082901 -0.021562692
174866666666.67 -0.076985933 0.041959226 -10.483265 3.6139517 7.4634008e-05 -3.4624296e-05 0.022596549 -0.023563998
174933333333.33 -0.074474439 0.049378674 -10.098713 4.5639811 5.9112128e-05 -3.9864135e-05 0.021220997 -0.025046492
175000000000 -0.07191617 0.058850937 -9.6296282 5.4547062 5.1073839e-05 -5.0192444e-05 0.019640084 -0.026689947
175066666666.67 -0.068289198 0.063526385 -9.0648928 6.2617955 4.0784333e-05 -6.6887624e-05 0.017859383 -0.028077887
175133333333.33 -0.061499394 0.067632563 -8.4219084 7.0947142 4.7804271e-05 -6.8700218e-05 0.016181143 -0.029044524
175200000000 -0.058110733 0.073519595 -7.7696247 7.7543054 3.034049e-05 -8.3700681e-05 0.014432054 -0.029989842
175266666666.67 -0.049994823 0.076686502 -6.999507 8.3894253 3.2010306e-05 -7.7816163e-05 0.012733323 -0.030743975
175333333333.33 -0.044658229 0.083385624 -6.1569057 8.9859114 2.8588647e-05 -8.4724539e-05 0.011107305 -0.031400107
175400000000 -0.037147447 0.085239202 -5.3043818 9.5223274 1.0366017e-05 -0.00010122346 0.0092056328 -0.031866893
175466666666.67 -0.028583404 0.088398926 -4.4936986 9.882596 1.1263221e-05 -9.6494739e-05 0.0075600394 -0.031866871
175533333333.33 -0.025129929 0.090294339 -3.5529556 10.240627 -5.5786986e-06 -9.2707953e-05 0.0058162464 -0.031767242
175600000000 -0.016476102 0.095228285 -2.5538974 10.490307 -1.5157232e-05 -8.4175757e-05 0.00401014 -0.031661101
175666666666.67 -0.0062850975 0.098189674 -1.5906293 10.693288 -2.6276086e-05 -0.00010375271 0.0020261146 -0.031754635
175733333333.33 0.0028434508 0.097122878 -0.54068518 10.749338 -3.3063257e-05 -0.00010326327 0.0002247775 -0.031387292
175800000000 0.01056754 0.1002308 0.45020342 10.728678 -6.678862e-05 -0.00011653423 -0.0015229625 -0.030709729
175866666666.67 0.02067383 0.10067321 1.4198538 10.634324 -5.6919249e-05 -9.1622154e-05 -0.0028490988 -0.030041942
175933333333.33 0.030276455 0.099650159 2.4062796 10.412611 -6.4131083e-05 -6.5924643e-05 -0.0041737622 -0.029159883
176000000000 0.03575965 0.10094599 3.2915809 10.14112 -7.2737574e-05 -8.2033366e-05 -0.0053941482 -0.027923847
176066666666.67 0.048469134 0.09479069 4.1460667 9.781889 -7.8264886e-05 -7.791628e-05 -0.0063069034 -0.027005073
176133333333.33 0.056197613 0.095341906 5.0626836 9.3769541 -8.7383494e-05 -6.5627049e-05 -0.0072875516 -0.026076987
176200000000 0.064364791 0.09106148 5.8667531 8.7659369 -9.5791067e-05 -6.2808824e-05 -0.0082915165 -0.024919828
176266666666.67 0.073450334 0.088237107 6.6279807 8.1259279 -0.00011246183 -5.2194719e-05 -0.0089246016 -0.023669083
176333333333.33 0.081505328 0.084428206 7.3214908 7.4759016 -0.00013043152 -4.6702822e-05 -0.0092607271 -0.022640042
176400000000 0.089012951 0.077968433 7.9374514 6.8228889 -0.00014310499 -3.8469178e-05 -0.0096827885 -0.021448746
176466666666.67 0.098775268 0.071254566 8.5348234 6.0766816 -0.00013598533 -1.4289753e-05 -0.0097027039 -0.020410011
176533333333.33 0.10400195 0.06740848 9.0170746 5.2145772 -0.00015323215 2.0726657e-07 -0.0099570192 -0.019057401
176600000000 0.11014287 0.056625552 9.4598579 4.3613853 -0.00014814592 7.8681187e-06 -0.0097060865 -0.017965237
176666666666.67 0.11619046 0.050200783 9.748106 3.42115 -0.00015316403 1.6298705e-05 -0.0095165633 -0.016663212
176733333333.33 0.12463456 0.040976688 10.030029 2.4990807 -0.00015132703 3.6443224e-05 -0.0090115629 -0.01560683
176800000000 0.1310976 0.031480264 10.165192 1.6229491 -0.00014094873 5.3598898e-05 -0.0083490945 -0.014881521
176866666666.67 0.13245296 0.02062284 10.246514 0.70441526 -0.00014722042 6.9364738e-05 -0.0076159025 -0.013965876
176933333333.33 0.13654086 0.01053071 10.262911 -0.26414871 -0.00014919978 8.6409724e-05 -0.007045649 -0.013051661
177000000000 0.13752848 0.0033257678 10.13746 -1.1391926 -0.00014051667 9.6309981e-05 -0.0058358507 -0.012573902
177066666666.67 0.14098531 -0.0072512701 9.9659948 -2.0696232 -0.00014959186 0.00010348576 -0.0050051175 -0.012238578
177133333333.33 0.1432832 -0.019410096 9.7005796 -2.9593737 -0.00013425331 0.00012607146 -0.0040446515 -0.011592532
177200000000 0.14319578 -0.030681815 9.3333197 -3.834547 -0.00012880084 0.00013103109 -0.0029056859 -0.01147367
177266666666.67 0.14249732 -0.04414545 8.8903713 -4.6989951 -0.00010311853 0.00014994442 -0.0017535207 -0.011466952
177333333333.33 0.14206889 -0.051821962 8.4321632 -5.4350538 -0.00010196622 0.00015589823 -0.00048955157 -0.011734189
177400000000 0.13702446 -0.067898132 7.8714862 -6.211051 -8.960205e-05 0.00017091824 0.00060587423 -0.012231704
177466666666.67 0.13636163 -0.078854814 7.269906 -6.8438168 -7.2049865e-05 0.00016765672 0.0017739856 -0.012577745
177533333333.33 0.13472058 -0.090474688 6.6029396 -7.4581699 -5.9558781e-05 0.00019835374 0.0028542194 -0.013334136
177600000000 0.12789658 -0.1024121 5.8531098 -7.9693036 -4.3081316e-05 0.00019576825 0.0037484141 -0.014357982
177666666666.67 0.12252171 -0.1127084 5.0253897 -8.5099487 -3.0344963e-05 0.00020067532 0.00512448 -0.015341985
177733333333.33 0.11756672 -0.12658086 4.2123885 -8.9018908 -8.7910594e-06 0.0002033404 0.0060462449 -0.016743433
177800000000 0.10818823 -0.13261473 3.4268563 -9.1769314 6.6307866e-06 0.00020681652 0.006968433 -0.018160222
177866666666.67 0.10188533 -0.14532427 2.5585561 -9.490551 2.282179e-05 0.00021811656 0.0076051536 -0.020112548
177933333333.33 0.089991167 -0.15538444 1.5926914 -9.616334 4.1495052e-05 0.00021692799 0.0081412364 -0.0215737
178000000000 0.081338406 -0.16132227 0.78263044 -9.6330481 7.312357e-05 0.00021420651 0.0087935934 -0.023559585
178066666666.67 0.070858881 -0.17219102 -0.10402775 -9.6583805 8.1928665e-05 0.00020964944 0.0090883356 -0.025225881
178133333333.33 0.059956428 -0.17916422 -0.95699406 -9.6093493 0.00010028559 0.00019698964 0.0093478635 -0.027669355
178200000000 0.0492559 -0.18611917 -1.8282274 -9.449811 0.00013042937 0.00020292136 0.0092790471 -0.030025696
178266666666.67 0.038541652 -0.19036019 -2.667474 -9.170928 0.0001461762 0.00018617579 0.0089097787 -0.031609781
178333333333.33 0.027371824 -0.19697966 -3.4260509 -8.8271809 0.00015769876 0.00017067141 0.0085709821 -0.034160122
178400000000 0.012941901 -0.20128332 -4.1738381 -8.4862289 0.00017352942 0.00016673491 0.0081082741 -0.036128696
178466666666.67 -0.0011914074 -0.20209074 -4.924758 -8.019763 0.00018070253 0.0001549 0.0069602272 -0.038646623
178533333333.33 -0.013673503 -0.20451117 -5.6395378 -7.5365739 0.00019368999 0.00013183756 0.0059949849 -0.0412734
178600000000 -0.029579766 -0.2050903 -6.2658887 -6.9414163 0.00022021749 0.00012194511 0.0042541861 -0.043842115
178666666666.67 -0.041588843 -0.20698474 -6.8214483 -6.3158302 0.0002267214 0.00010722192 0.0023289975 -0.046098799
178733333333.33 -0.054577701 -0.20538372 -7.3146377 -5.7136989 0.00023486718 0.00010730838 0.00044004805 -0.048339885
178800000000 -0.072025537 -0.20277703 -7.746944 -5.0192823 0.00024936479 8.2218408e-05 -0.0016642008 -0.050658453
178866666666.67 -0.084840775 -0.19986609 -8.1379423 -4.2921295 0.00026434605 5.5603938e-05 -0.0043164659 -0.052727938
178933333333.33 -0.09941338 -0.19707339 -8.4333382 -3.5005715 0.00025952162 3.8830549e-05 -0.007147626 -0.054732196
179000000000 -0.11247506 -0.18984081 -8.729105 -2.7696676 0.00025917983 9.9733043e-06 -0.0099779731 -0.056735728
179066666666.67 -0.12778899 -0.18433437 -8.9186859 -1.9634559 0.00026717837 -2.6516718e-06 -0.013176512 -0.058620773
179133333333.33 -0.14261924 -0.17598508 -9.012538 -1.1263969 0.00026627674 -3.1812728e-05 -0.016534232 -0.060160223
179200000000 -0.15446082 -0.16845462 -9.0253763 -0.32449555 0.00026434002 -6.3180574e-05 -0.020860329 -0.061466191
179266666666.67 -0.1670396 -0.15903343 -8.9831972 0.53217721 0.00027098693 -8.2261242e-05 -0.024766451 -0.062174581
179333333333.33 -0.18073733 -0.14864147 -8.8845596 1.316097 0.00025541658 -0.00010334011 -0.028528441 -0.062943488
179400000000 -0.1932084 -0.14007077 -8.6669493 2.0606527 0.00025127639 -0.00012790828 -0.03255529 -0.063437194
179466666666.67 -0.20094465 -0.12762339 -8.3661785 2.8221221 0.00023753171 -0.00014655643 -0.036611997 -0.063164026
179533333333.33 -0.21344995 -0.11356112 -8.0461102 3.5382295 0.00023608415 -0.0001569538 -0.041089095 -0.06347248
179600000000 -0.22181153 -0.10056294 -7.6614537 4.2305236 0.00022130639 -0.0001829964 -0.04506693 -0.063162699
179666666666.67 -0.23193336 -0.090462074 -7.2439771 4.8659692 0.00022696411 -0.00019470404 -0.049577117 -0.06278488
179733333333.33 -0.24023232 -0.076499403 -6.7913008 5.4672165 0.0001994515 -0.00023552623 -0.054293893 -0.061983932
179800000000 -0.24315342 -0.06169571 -6.2305436 6.0007114 0.00020563658 -0.00022961842 -0.059220243 -0.060232922
179866666666.67 -0.25055584 -0.04408437 -5.6359844 6.5301981 0.00017548396 -0.00025914254 -0.063630611 -0.058595151
179933333333.33 -0.25618264 -0.02949876 -5.0637951 6.9544678 0.00015041431 -0.00026853863 -0.068326965 -0.056495667
180000000000 -0.25643045 -0.012568995 -4.3962479 7.3125167 0.0001219134 -0.00028542013 -0.072604232 -0.054152828
180066666666.67 -0.25834179 0.0046007931 -3.7374096 7.6579709 0.00010809518 -0.00029064028 -0.077584662 -0.051254477
180133333333.33 -0.2580983 0.018173914 -3.0462303 7.8849778 7.24411e-05 -0.00029245109 -0.081781812 -0.047877502
180200000000 -0.25909629 0.035587355 -2.3110273 8.0981131 7.5795062e-05 -0.0003121653 -0.086003877 -0.044488765
180266666666.67 -0.2559593 0.052113459 -1.6009059 8.246439 3.2938959e-05 -0.0003168401 -0.089787617 -0.040762268
180333333333.33 -0.25681627 0.069104381 -0.89404964 8.3206415 1.5803413e-05 -0.00033276156 -0.093903042 -0.036902126
180400000000 -0.24866246 0.086135432 -0.12257433 8.2905846 -5.9784579e-06 -0.00031810216 -0.097561575 -0.032208085
180466666666.67 -0.24529172 0.1040141 0.59086919 8.2664719 -4.4916625e-05 -0.00034349156 -0.10128145 -0.027140509
180533333333.33 -0.23954904 0.12047026 1.3066159 8.1325617 -6.8789712e-05 -0.00033842665 -0.10438131 -0.021909861
180600000000 -0.23094094 0.13573641 1.9993715 7.9229021 -7.8731915e-05 -0.00033479597 -0.10708226 -0.016549006
180666666666.67 -0.22201413 0.14992459 2.6215014 7.7147841 -0.00012418721 -0.00033491408 -0.10944568 -0.011294641
180733333333.33 -0.21282832 0.16573121 3.2962284 7.4809723 -0.00013367372 -0.00031852472 -0.11236506 -0.0053982064
180800000000 -0.20191956 0.18051444 3.969106 7.1157818 -0.00016935772 -0.00031966608 -0.1142661 0.0014236495
180866666666.67 -0.19184057 0.194437 4.5200615 6.742816 -0.0001930719 -0.00029504095 -0.1162313 0.0078511126
180933333333.33 -0.1789808 0.20974556 5.0469718 6.3056202 -0.00022507574 -0.00029950097 -0.11685961 0.014747294
181000000000 -0.16514204 0.21933767 5.607728 5.7776966 -0.00023684587 -0.00027656369 -0.11755706 0.02188834
181066666666.67 -0.15174656 0.2330748 6.0796962 5.2181444 -0.00026447041 -0.00025739276 -0.11773001 0.029335227
181133333333.33 -0.13521081 0.24306536 6.4767132 4.6217203 -0.0002827326 -0.00024023301 -0.11726761 0.03669475
181200000000 -0.11847714 0.25107485 6.7853985 4.0068016 -0.00031516771 -0.00021373783 -0.11632542 0.043717213
181266666666.67 -0.10680623 0.25895002 7.0456963 3.4399319 -0.00032036452 -0.00019269332 -0.11512464 0.050985739
181333333333.33 -0.089502059 0.26495209 7.3141479 2.785254 -0.00035276642 -0.00016696722 -0.11323144 0.058243319
181400000000 -0.069560558 0.27118254 7.4759059 2.1055543 -0.00037000532 -0.0001279194 -0.11079931 0.065136902
181466666666.67 -0.052004099 0.27735609 7.6145811 1.4494601 -0.00038224852 -0.00010833904 -0.1080638 0.07241261
181533333333.33 -0.038131125 0.27740711 7.6362476 0.79541683 -0.00038991781 -8.4693529e-05 -0.10483384 0.079070829
181600000000 -0.018241562 0.28248298 7.6394739 0.13170481 -0.00039894696 -4.5837012e-05 -0.10152009 0.085423812
181666666666.67 0.0017919838 0.28207964 7.5835428 -0.55045545 -0.00041728321 -2.1856576e-05 -0.097464226 0.092234232
181733333333.33 0.020655662 0.28185868 7.4759674 -1.1654556 -0.00039846273 2.7461982e-05 -0.093057387 0.098621473
181800000000 0.038020931 0.28179672 7.3135118 -1.8333254 -0.00042300147 3.9490304e-05 -0.087348595 0.10493731
181866666666.67 0.057217151 0.27724531 7.0811725 -2.4246526 -0.00042971809 8.4926338e-05 -0.082247846 0.11044374
181933333333.33 0.076057099 0.27255926 6.7962255 -3.0440173 -0.00041558058 0.00010395001 -0.07572677 0.11604274
182000000000 0.091947906 0.26618171 6.4826622 -3.6242428 -0.0003850834 0.00014681651 -0.069316983 0.12166798
182066666666.67 0.11016048 0.25933477 6.1134686 -4.1321988 -0.00038584543 0.00018355135 -0.062428236 0.12633882
182133333333.33 0.1259301 0.25278917 5.7093639 -4.6004047 -0.00037910155 0.00020925762 -0.054782622 0.13114797
182200000000 0.1456119 0.24326119 5.2790875 -5.0526943 -0.00036456619 0.00025147683 -0.047202103 0.13483976
182266666666.67 0.16233094 0.23238623 4.7977934 -5.4866667 -0.00035290347 0.00026968992 -0.039477594 0.13870069
182333333333.33 0.17801316 0.22391796 4.3123584 -5.8484683 -0.00032042095 0.00029927024 -0.031313512 0.14199036
182400000000 0.19263014 0.20714338 3.7499044 -6.1907129 -0.00028774759 0.00031939062 -0.023022359 0.1447534
182466666666.67 0.20629126 0.19272454 3.189033 -6.5041604 -0.00027983385 0.00036226527 -0.014271274 0.14693433
182533333333.33 0.21813747 0.1775049 2.5794969 -6.7165289 -0.0002481885 0.00037499645 -0.0050859675 0.1489069
182600000000 0.22998992 0.16623524 1.9849079 -6.8834324 -0.00021457065 0.00039844585 0.0044618892 0.14992808
182666666666.67 0.23948123 0.14718306 1.3893973 -6.9604192 -0.00019418373 0.00043709841 0.01357571 0.15011111
182733333333.33 0.25225586 0.13047686 0.78870654 -7.0389695 -0.00016991865 0.00044714054 0.02318671 0.14933252
182800000000 0.2612946 0.11156425 0.13707995 -7.0432596 -0.00012332559 0.0004688589 0.032530289 0.14858016
182866666666.67 0.26888591 0.093907602 -0.47550249 -6.9807196 -8.3996812e-05 0.00047065312 0.041658994 0.14679855
182933333333.33 0.27389187 0.074952021 -1.1081587 -6.8462205 -5.3274303e-05 0.00048711349 0.050997857 0.14449774
183000000000 0.27541506 0.058471002 -1.6569877 -6.6960487 -1.1590571e-05 0.0004677854 0.060688093 0.14195864
183066666666.67 0.28270766 0.036107793 -2.2346516 -6.5256996 2.7774913e-05 0.00049822649 0.069707461 0.13827537
183133333333.33 0.28307763 0.017090261 -2.7695634 -6.2515707 5.7888581e-05 0.00049189501 0.078262299 0.13410515
183200000000 0.28336769 -0.0046430379 -3.2726715 -5.9402466 9.2915318e-05 0.00049221655 0.086688787 0.12948865
183266666666.67 0.28249094 -0.022786647 -3.7258501 -5.5886941 0.00014315092 0.00047849049 0.094222866 0.12375993
183333333333.33 0.28101876 -0.042404436 -4.2089853 -5.2227788 0.00017338002 0.00046051817 0.1033602 0.11882772
183400000000 0.27748471 -0.063553333 -4.6369944 -4.8501658 0.00020487195 0.00047169899 0.11126576 0.11248934
183466666666.67 0.27143496 -0.079204731 -4.983736 -4.4172001 0.00024247554 0.00046176574 0.1183091 0.10548963
183533333333.33 0.26838404 -0.10239329 -5.3427114 -3.9417377 0.00028011625 0.00042182041 0.12518935 0.098301843
183600000000 0.25208822 -0.11541058 -5.6391249 -3.4141417 0.00031010472 0.00040530908 0.13248162 0.089919835
183666666666.67 0.2451714 -0.13650745 -5.8602619 -2.8640041 0.00034285075 0.00038467327 0.13752666 0.081510715
183733333333.33 0.2339939 -0.1514937 -6.069869 -2.3206589 0.00037433393 0.00036779192 0.14304686 0.072266921
183800000000 0.22594742 -0.16586223 -6.2166638 -1.8035053 0.00041409157 0.00032561377 0.14780992 0.063277766
183866666666.67 0.20953336 -0.18176183 -6.3331285 -1.2410097 0.00041275518 0.0002968114 0.15277538 0.054503206
183933333333.33 0.19297493 -0.20009066 -6.3639941 -0.66895151 0.00044548733 0.00026775085 0.1564292 0.043722276
184000000000 0.18072994 -0.20892537 -6.3931899 -0.13542175 0.00046928041 0.00021481392 0.15918289 0.034063704
184066666666.67 0.16339645 -0.22661442 -6.362504 0.40584707 0.00050545635 0.00021164895 0.16229433 0.024410024
184133333333.33 0.1491003 -0.23985659 -6.2869029 0.97135043 0.00052145327 0.00015661669 0.16409692 0.013855861
184200000000 0.1282734 -0.24612932 -6.1210732 1.5682981 0.00051723409 0.00013243957 0.16482925 0.0019752719
184266666666.67 0.11261739 -0.25434464 -5.8932867 2.042325 0.00053484418 7.5029791e-05 0.1643465 -0.0083695799
184333333333.33 0.089941941 -0.26450175 -5.6910577 2.5330117 0.00054142391 4.0580398e-05 0.16365156 -0.018815205
184400000000 0.068350703 -0.26793787 -5.424387 3.0216184 0.00054652628 -4.3246982e-06 0.16346776 -0.029937897
184466666666.67 0.05107227 -0.27530783 -5.1587982 3.4428253 0.00053490634 -4.1370862e-05 0.16239193 -0.039903253
184533333333.33 0.028973624 -0.27815136 -4.7824025 3.8625987 0.00055715314 -9.4817646e-05 0.15994394 -0.05058109
184600000000 0.0079915151 -0.27992398 -4.4209743 4.2566385 0.00054537738 -0.00012111966 0.15680459 -0.060896024
184666666666.67 -0.015468404 -0.28049529 -3.9793186 4.619247 0.00055542303 -0.00017081022 0.15315612 -0.071225092
184733333333.33 -0.033179231 -0.27938706 -3.5651574 4.9241524 0.00052803085 -0.00021968593 0.1485803 -0.081455693
184800000000 -0.051080965 -0.27537638 -3.1114213 5.1460013 0.00050413032 -0.00025828072 0.14429675 -0.0906367
184866666666.67 -0.073450312 -0.26937979 -2.6637158 5.4206529 0.00051457196 -0.00031323545 0.13813435 -0.10153074
184933333333.33 -0.091986708 -0.2656697 -2.2075415 5.5855432 0.00046541294 -0.00032497806 0.13126868 -0.10950955
185000000000 -0.10878787 -0.25988552 -1.6856873 5.6903896 0.00043812502 -0.00038436279 0.12445523 -0.11841871
185066666666.67 -0.13127632 -0.24929953 -1.1446669 5.8317404 0.00040929066 -0.0003917822 0.11633568 -0.12764187
185133333333.33 -0.14964679 -0.23992096 -0.62215024 5.8840542 0.00040486787 -0.00043072502 0.10740267 -0.13498823
185200000000 -0.16594361 -0.22789162 -0.067468762 5.8710289 0.00035565571 -0.0005006406 0.0977543 -0.143013
185266666666.67 -0.18118463 -0.21568406 0.42623925 5.8242311 0.00031191582 -0.00052422471 0.087518886 -0.14974827
185333333333.33 -0.19766101 -0.20068032 0.91829133 5.751791 0.00027768605 -0.00053191639 0.077677622 -0.15600888
185400000000 -0.21313737 -0.18617198 1.4311118 5.6133842 0.00025772734 -0.00057081948 0.065915473 -0.1614801
185466666666.67 -0.22593772 -0.16913825 1.9089382 5.3933196 0.00018160541 -0.00059005903 0.054483704 -0.16557999
185533333333.33 -0.23702799 -0.15039355 2.3736339 5.1663446 0.00015675953 -0.00058212428 0.043161023 -0.16864684
185600000000 -0.24651629 -0.13183352 2.7935715 4.8886685 0.0001150825 -0.00059084338 0.031892616 -0.17071351
185666666666.67 -0.2576814 -0.11574126 3.1641326 4.6220055 6.5519562e-05 -0.00059404067 0.020741448 -0.17342491
185733333333.33 -0.27008808 -0.091649838 3.571435 4.2815738 3.5117002e-05 -0.00061525608 0.0088547245 -0.17492361
185800000000 -0.27223921 -0.075113356 3.8954444 3.9489589 -2.9882664e-05 -0.00062050053 -0.00080985203 -0.1758291
185866666666.67 -0.27988148 -0.051278803 4.1520662 3.6011977 -9.6331263e-05 -0.0006263738 -0.013402272 -0.1757206
185933333333.33 -0.28348029 -0.030397218 4.4423337 3.1970191 -0.00013515069 -0.00060688099 -0.026416998 -0.1752491
186000000000 -0.28443655 -0.0063381195 4.6940289 2.7694616 -0.00018754289 -0.00059468538 -0.039473481 -0.17256247
186066666666.67 -0.28870103 0.01369369 4.9056778 2.2979336 -0.0002407547 -0.00060073251 -0.052382376 -0.16949867
186133333333.33 -0.28597218 0.033197843 5.0332856 1.8333379 -0.00026679217 -0.00055021892 -0.062978804 -0.16505361
186200000000 -0.2833325 0.057355873 5.1443515 1.3709861 -0.00030854795 -0.00054785889 -0.073165268 -0.16066645
186266666666.67 -0.27982166 0.075600371 5.1917572 0.93573797 -0.00034325151 -0.00052715332 -0.083313122 -0.15595432
186333333333.33 -0.27480319 0.10004578 5.2470617 0.47012258 -0.00039442381 -0.00050841743 -0.09367092 -0.15144725
186400000000 -0.26999912 0.11699237 5.2427402 -0.0061912537 -0.00040606584 -0.00048885355 -0.1049801 -0.1442204
186466666666.67 -0.26092726 0.13779059 5.1816249 -0.46850491 -0.00047424503 -0.00045298811 -0.11578363 -0.1361852
186533333333.33 -0.25017488 0.15541655 5.1121745 -0.90876961 -0.00050800515 -0.00041873415 -0.12540211 -0.12753157
186600000000 -0.24027038 0.17442591 4.9975929 -1.3325373 -0.00054469833 -0.00036465985 -0.1350424 -0.11837105
186666666666.67 -0.22558744 0.19168824 4.8228216 -1.7606162 -0.00058989262 -0.00033058648 -0.14338854 -0.10827287
186733333333.33 -0.21145999 0.20986693 4.6394668 -2.1683176 -0.00059222465 -0.00029310174 -0.15122513 -0.098042637
186800000000 -0.1958655 0.22359188 4.3819175 -2.5611143 -0.00063211418 -0.0002526842 -0.15832718 -0.087227151
186866666666.67 -0.17969559 0.23697065 4.1050744 -2.909601 -0.00063963345 -0.00017224454 -0.16385916 -0.074812867
186933333333.33 -0.1637429 0.25204688 3.8072267 -3.2249246 -0.00065498118 -0.00011545073 -0.16866282 -0.064263657
187000000000 -0.14370468 0.2627337 3.4924538 -3.5640738 -0.00065102789 -9.4197283e-05 -0.17328128 -0.052278645
187066666666.67 -0.12637836 0.26998019 3.1085811 -3.8116376 -0.00067806471 -2.9885647e-05 -0.17700081 -0.03988833
187133333333.33 -0.10379095 0.28344136 2.7231817 -4.0611749 -0.00066123693 -4.7913636e-07 -0.17929533 -0.027043127
187200000000 -0.080801517 0.29492953 2.3738441 -4.2347336 -0.00068094151 6.5276174e-05 -0.18087389 -0.014391493
187266666666.67 -0.061432384 0.29824206 2.0088613 -4.4050589 -0.00063466199 0.00010774791 -0.18299858 -0.001744438
187333333333.33 -0.03754051 0.30359522 1.5789132 -4.539465 -0.00065223814 0.00015806238 -0.18263167 0.012481228
187400000000 -0.019162908 0.30695421 1.1681225 -4.6276922 -0.00064042851 0.00022526288 -0.18220699 0.025668733
187466666666.67 0.0060742237 0.30790052 0.74510074 -4.6902084 -0.00061294856 0.0002636186 -0.17994739 0.038937662
187533333333.33 0.03375775 0.30772918 0.31090426 -4.7049556 -0.00058862625 0.00029878435 -0.17721595 0.051887803
187600000000 0.051697642 0.30560637 -0.10114527 -4.6714582 -0.00056198164 0.0003514617 -0.17305869 0.064549051
187666666666.67 0.076728038 0.30336353 -0.50890243 -4.6204176 -0.00054405624 0.00039876631 -0.16815464 0.077623494
187733333333.33 0.10293308 0.29666325 -0.91718858 -4.5172672 -0.00051758677 0.00042158965 -0.1627011 0.089029983
187800000000 0.11968197 0.29388192 -1.2799118 -4.3958936 -0.00048577512 0.0004909992 -0.15640065 0.10119031
187866666666.67 0.14053385 0.28304803 -1.6558887 -4.2216282 -0.00046110127 0.00050946785 -0.14892071 0.11257015
187933333333.33 0.1580614 0.27395722 -1.9930296 -4.0144072 -0.00039219327 0.00055307604 -0.1403776 0.12330595
188000000000 0.17952749 0.26107454 -2.2981172 -3.8155041 -0.00035580658 0.00057042151 -0.13177913 0.13345914
188066666666.67 0.19845107 0.25107387 -2.5939162 -3.5837679 -0.0003169775 0.00059674075 -0.12201829 0.14247599
188133333333.33 0.21521589 0.23592775 -2.902678 -3.2995851 -0.00025730595 0.00063724694 -0.1116249 0.15204778
188200000000 0.23417524 0.2216762 -3.1649656 -3.0123358 -0.00022897948 0.00064799446 -0.10003518 0.16103919
188266666666.67 0.25119862 0.20706642 -3.3908761 -2.701757 -0.0001697226 0.00066584739 -0.087218262 0.16941881
188333333333.33 0.26741034 0.18706842 -3.585954 -2.3817198 -0.00010963168 0.00068628055 -0.074165314 0.17650953
188400000000 0.27780965 0.16802573 -3.7402534 -2.0618598 -5.2243471e-05 0.00066226092 -0.061651837 0.1819351
188466666666.67 0.29275468 0.15053578 -3.8921475 -1.6872319 -2.3647251e-06 0.00067352067 -0.047729746 0.18649894
188533333333.33 0.30261439 0.1290316 -3.9973946 -1.3569604 5.3831813e-05 0.00067404885 -0.034163751 0.19104242
188600000000 0.31163031 0.1095262 -4.0665827 -0.99907327 9.1703609e-05 0.00067885412 -0.021092363 0.19384512
188666666666.67 0.31717187 0.085464045 -4.0999069 -0.6155147 0.00014592907 0.00064115558 -0.0067518288 0.1955868
188733333333.33 0.32613504 0.059081972 -4.1101007 -0.24549615 0.00020471647 0.00066294021 0.0075082257 0.19666025
188800000000 0.32964286 0.040070251 -4.0861526 0.10587549 0.00023567825 0.00061647315 0.022488609 0.19646248
188866666666.67 0.33316368 0.017502971 -4.036541 0.47994554 0.0002952354 0.00060647685 0.037128925 0.19520488
188933333333.33 0.33228675 -0.0081201196 -3.920083 0.80423188 0.00033132761 0.00058218278 0.05028015 0.19227394
189000000000 0.33620828 -0.031640425 -3.8300047 1.1198242 0.00037287432 0.00056376489 0.065162845 0.18890251
189066666666.67 0.32928881 -0.057219319 -3.6617267 1.4509777 0.00041943166 0.00051810284 0.079047486 0.18467084
189133333333.33 0.32680362 -0.082545325 -3.4976268 1.7239764 0.00046656933 0.00048905791 0.09202382 0.17986646
189200000000 0.32431692 -0.10733145 -3.3200955 2.0112579 0.00048789612 0.00044604694 0.10528816 0.17378902
189266666666.67 0.31479913 -0.12858309 -3.0902355 2.295115 0.00052002288 0.0004306187 0.11883268 0.1661548
189333333333.33 0.30557844 -0.14982611 -2.8636904 2.5195477 0.00053953077 0.00039003143 0.13133202 0.15824501
189400000000 0.29445037 -0.16957961 -2.6137826 2.7408822 0.00058826414 0.00033452921 0.14360113 0.14906178
189466666666.67 0.28417531 -0.19411215 -2.3339229 2.9202478 0.00060632662 0.00029144369 0.1543822 0.13949257
189533333333.33 0.27174252 -0.21548 -2.0399966 3.0996068 0.00062357262 0.00024033626 0.16552058 0.12800355
189600000000 0.25499579 -0.23327459 -1.7592232 3.2204943 0.00062372803 0.00020074518 0.17461477 0.1176389
189666666666.67 0.23952568 -0.25456831 -1.4517314 3.313874 0.00064657774 0.00014267344 0.1832785 0.10486972
189733333333.33 0.22169015 -0.2715866 -1.1489248 3.4035087 0.00065112411 9.8688601e-05 0.19143991 0.092573814
189800000000 0.20547593 -0.28759122 -0.85165966 3.4657736 0.0006572206 5.5422861e-05 0.19876572 0.079226814
189866666666.67 0.18510161 -0.29966873 -0.53706813 3.4876676 0.0006651791 5.1860698e-06 0.20478727 0.064740986
189933333333.33 0.16244465 -0.3134065 -0.21816933 3.4854918 0.00064589124 -3.6466983e-05 0.21018426 0.050642323
190000000000 0.14052369 -0.32471228 0.082158566 3.4582829 0.00065305928 -9.5089781e-05 0.21443096 0.036000647
190066666666.67 0.11730911 -0.33375922 0.36080492 3.4008589 0.0006293357 -0.00011203359 0.21807265 0.02135051
190133333333.33 0.096017882 -0.34295422 0.65502858 3.3162858 0.00062628213 -0.00018482341 0.21972747 0.0054162554
190200000000 0.07710316 -0.34632814 0.90792727 3.2242556 0.00061257498 -0.00023172477 0.22202897 -0.010325007
190266666666.67 0.05410976 -0.35333115 1.170624 3.1099648 0.00059820811 -0.00028885182 0.22161824 -0.026650604
190333333333.33 0.025467839 -0.35773662 1.4097159 2.9666629 0.00056034402 -0.0003129823 0.22062221 -0.042402077
190400000000 0.0026695579 -0.35577965 1.6506778 2.7955027 0.00052721403 -0.00035638193 0.21873736 -0.058558606
190466666666.67 -0.025252551 -0.35648391 1.8753077 2.6037011 0.00050655945 -0.00039784692 0.21551371 -0.07422407
190533333333.33 -0.049592383 -0.35340568 2.0713723 2.4204586 0.00046135866 -0.00043598335 0.2111389 -0.089990065
190600000000 -0.077285558 -0.34894192 2.2468369 2.1857777 0.00044543258 -0.00045324274 0.20564589 -0.10505314
190666666666.67 -0.10377957 -0.34697732 2.4199767 1.9520516 0.00040512817 -0.00048580964 0.19899161 -0.12033312
190733333333.33 -0.12302428 -0.33437788 2.5162299 1.7163512 0.00037399368 -0.00053431978 0.19151777 -0.13457532
190800000000 -0.15039325 -0.32803902 2.62378 1.4935484 0.00032996573 -0.00056927075 0.18270278 -0.14841205
190866666666.67 -0.16965269 -0.31767511 2.6915221 1.2681388 0.00027646814 -0.00057255419 0.17238152 -0.16163421
190933333333.33 -0.19266009 -0.30513954 2.7597919 1.013182 0.00022494521 -0.00058689399 0.16202445 -0.17439425
191000000000 -0.21331412 -0.29080254 2.7890432 0.77121401 0.00019948879 -0.00059278239 0.15045676 -0.18624066
191066666666.67 -0.23362279 -0.27600718 2.796633 0.53068578 0.00016826132 -0.00059652288 0.13668641 -0.19720767
191133333333.33 -0.25452793 -0.26054662 2.7839158 0.29128218 0.00012112362 -0.00061539147 0.12578693 -0.20580077
191200000000 -0.27047738 -0.24302661 2.7674916 0.064260483 9.2986127e-05 -0.00061748829 0.11118551 -0.21523309
191266666666.67 -0.28805697 -0.22539282 2.7251389 -0.15014637 3.6934922e-05 -0.00062946702 0.097637177 -0.22367157
191333333333.33 -0.30468398 -0.20401357 2.6602964 -0.34785074 -5.6547724e-06 -0.00061360165 0.082697146 -0.23102032
191400000000 -0.31918341 -0.18398848 2.5877843 -0.55540383 -7.2294119e-05 -0.00062512769 0.066770539 -0.23745465
191466666666.67 -0.33359197 -0.1619982 2.5017421 -0.75789547 -9.2417569e-05 -0.00059732579 0.049797915 -0.24281475
191533333333.33 -0.34240755 -0.13963982 2.4039848 -0.94154102 -0.00012507224 -0.00061136746 0.034341112 -0.24677184
191600000000 -0.3536607 -0.11478961 2.3001373 -1.1012235 -0.00019421823 -0.0005804809 0.016337194 -0.24996875
191666666666.67 -0.35975766 -0.088458471 2.1839881 -1.2679185 -0.00021741731 -0.00054635637 -0.00056051649 -0.25070757
191733333333.33 -0.36621383 -0.063650623 2.0632334 -1.4030449 -0.00026826124 -0.0005440372 -0.017775178 -0.25200438
191800000000 -0.37206823 -0.038170472 1.9350675 -1.5454314 -0.00031412454 -0.00053012342 -0.034644172 -0.2501961
191866666666.67 -0.36850625 -0.011772907 1.7987039 -1.6595843 -0.00032128074 -0.00050664524 -0.052028473 -0.24847092
191933333333.33 -0.36898854 0.011320621 1.666151 -1.7859147 -0.00037524325 -0.00047224297 -0.068447568 -0.24576531
192000000000 -0.36837441 0.040138751 1.490481 -1.9037638 -0.00038731052 -0.00045675668 -0.085350044 -0.24071994
192066666666.67 -0.36604333 0.068111271 1.3369305 -2.0119569 -0.0004297329 -0.00041831465 -0.10229269 -0.23539677
192133333333.33 -0.36145854 0.093023136 1.169838 -2.1069241 -0.00043988298 -0.00039467827 -0.11801987 -0.22971432
192200000000 -0.35625836 0.12398605 1.0111142 -2.189889 -0.00047666585 -0.00035430962 -0.13376136 -0.22098577
192266666666.67 -0.34869042 0.14449123 0.828031 -2.2449226 -0.00051472354 -0.00030588984 -0.14935192 -0.21225262
192333333333.33 -0.33683938 0.16876051 0.59941041 -2.3230824 -0.00053153711 -0.00028145709 -0.16406858 -0.20244302
192400000000 -0.31641725 0.19321916 0.40879923 -2.3574839 -0.00050597824 -0.0002616226 -0.17689204 -0.19150819
192466666666.67 -0.30715555 0.21676248 0.19890857 -2.381078 -0.00054992281 -0.00021261873 -0.19032361 -0.17900115
192533333333.33 -0.28995225 0.23807317 -0.012854934 -2.3672366 -0.00055957033 -0.00018266526 -0.20204644 -0.16654997
192600000000 -0.27257344 0.26187119 -0.20017147 -2.379477 -0.00056896068 -0.00011851592 -0.21443 -0.15267621
192666666666.67 -0.25269064 0.2789588 -0.42163274 -2.3234308 -0.00056334276 -9.9243654e-05 -0.22458342 -0.13729069
192733333333.33 -0.23355995 0.29699573 -0.6175909 -2.2645247 -0.0005764704 -6.3222687e-05 -0.23378894 -0.12231429
192800000000 -0.20904148 0.31125236 -0.80401409 -2.1991274 -0.0005747939 -1.7279221e-05 -0.24230573 -0.10682648
192866666666.67 -0.19191773 0.32732165 -0.96530282 -2.1192698 -0.00058114843 1.7896091e-06 -0.2499544 -0.090851627
192933333333.33 -0.1709944 0.34174418 -1.1303208 -2.0206659 -0.00058882864 5.4025149e-05 -0.25542289 -0.073961422
193000000000 -0.1459996 0.34982783 -1.297778 -1.917485 -0.00056574412 9.7354576e-05 -0.2619693 -0.056924425
193066666666.67 -0.11749637 0.36528352 -1.4604661 -1.7691145 -0.00055757427 0.00013225678 -0.26430106 -0.036943734
193133333333.33 -0.093062706 0.37318715 -1.5989008 -1.6312908 -0.00055473042 0.00018711307 -0.26718926 -0.019560389
193200000000 -0.068084612 0.37942865 -1.7102026 -1.4814565 -0.00055385707 0.00022137091 -0.26863527 -0.0024140105
193266666666.67 -0.041222736 0.38253012 -1.8240736 -1.3193568 -0.00051010685 0.0002465905 -0.26848191 0.015575528
193333333333.33 -0.011330381 0.38518041 -1.9181232 -1.1444809 -0.00050186046 0.00027505145 -0.26740193 0.03313531
193400000000 0.014124901 0.38594675 -1.9912992 -0.97016108 -0.00048012263 0.00029527349 -0.26546118 0.051353659
193466666666.67 0.042280003 0.38169748 -2.0501344 -0.78360093 -0.00044340873 0.00035547494 -0.26157811 0.069639392
193533333333.33 0.068269759 0.37503776 -2.0921893 -0.59911048 -0.00044086663 0.00038097179 -0.25714904 0.086577728
193600000000 0.095964819 0.37263715 -2.111268 -0.42584205 -0.00038562037 0.00038619465 -0.25052536 0.10323267
193666666666.67 0.12273214 0.36707792 -2.137593 -0.2271896 -0.0003716888 0.00041728304 -0.24371344 0.12101129
193733333333.33 0.14711356 0.35624519 -2.1201186 -0.050729394 -0.00034585583 0.00042374979 -0.23546037 0.13628295
193800000000 0.17198123 0.34866357 -2.1082442 0.13882703 -0.00033199874 0.00046922127 -0.22650149 0.1532312
193866666666.67 0.19703206 0.33440131 -2.0636525 0.30243486 -0.00028961216 0.00048369839 -0.21600597 0.16814154
193933333333.33 0.22215106 0.31800085 -2.0102932 0.46671507 -0.00025263382 0.00051697029 -0.20433328 0.1825233
194000000000 0.24216735 0.30302021 -1.9552437 0.6192385 -0.0002163873 0.00053587859 -0.19260916 0.19697741
194066666666.67 0.26563507 0.28602135 -1.8764474 0.7787922 -0.00016513721 0.00055711647 -0.17863944 0.20984833
194133333333.33 0.28550985 0.26551047 -1.788201 0.91826022 -0.00014280145 0.00054280483 -0.16432448 0.22121367
194200000000 0.30278215 0.24581452 -1.6871629 1.0642576 -0.00011141086 0.00055590359 -0.14885338 0.23340359
194266666666.67 0.31817752 0.22213517 -1.5662138 1.1952283 -6.5343782e-05 0.0005800848 -0.13287181 0.24285606
194333333333.33 0.33128121 0.20043133 -1.4449139 1.321885 -2.1279819e-05 0.00056469144 -0.11575709 0.25303406
194400000000 0.34795067 0.17405915 -1.307049 1.4174554 -2.0336869e-05 0.00057344645 -0.09797547 0.2603015
194466666666.67 0.35832548 0.14828025 -1.1873697 1.5088587 3.8138322e-05 0.00056974078 -0.081692368 0.26766232
194533333333.33 0.37982816 0.12201859 -1.0393353 1.5937555 8.1889943e-05 0.0005610502 -0.062331773 0.27204311
194600000000 0.38041759 0.098463804 -0.89693141 1.6423553 0.00013169606 0.00056082656 -0.043278083 0.27580842
194666666666.67 0.39159858 0.068400688 -0.75268173 1.708645 0.00015432495 0.00056947005 -0.02447781 0.27897882
194733333333.33 0.39460003 0.039588921 -0.58627546 1.7516352 0.00020175336 0.00054141175 -0.0059887767 0.28096151
194800000000 0.39643377 0.013621181 -0.4393872 1.7673478 0.00022018615 0.00051775301 0.013442233 0.28101194
194866666666.67 0.39375147 -0.013529059 -0.28556648 1.7773116 0.0002828656 0.00050174783 0.032418262 0.28053004
194933333333.33 0.39320463 -0.045182645 -0.12311736 1.7762247 0.00030274177 0.00047261477 0.051999912 0.2790677
195000000000 0.38771611 -0.068503603 0.016770303 1.7564403 0.00035072325 0.00046067446 0.071542345 0.27489498
195066666666.67 0.38016498 -0.097348809 0.16430411 1.7375149 0.00037242021 0.00042919157 0.088997103 0.27104527
195133333333.33 0.37739116 -0.12156225 0.2945902 1.7008227 0.00041464262 0.00042242184 0.10756961 0.26327625
195200000000 0.36738396 -0.15163049 0.42753518 1.6613654 0.0004238229 0.00038594299 0.12589106 0.25771528
195266666666.67 0.35464293 -0.17349038 0.55869961 1.6134491 0.00046479277 0.00035586234 0.14555128 0.24882191
195333333333.33 0.33800444 -0.19940861 0.67826831 1.5389282 0.00048250053 0.00031641213 0.16107275 0.23988292
195400000000 0.32611796 -0.22342435 0.78918785 1.4675648 0.00051191798 0.00027463178 0.17722361 0.22941469
195466666666.67 0.30594826 -0.24617541 0.90277606 1.3673244 0.00052633538 0.00023333509 0.19397786 0.21590169
195533333333.33 0.28819239 -0.26807457 1.0038424 1.2875723 0.00053431717 0.00019563104 0.20856228 0.20377314
195600000000 0.27217352 -0.28486919 1.0943429 1.1782637 0.00055548985 0.00017390403 0.22139332 0.18935254
195666666666.67 0.24927326 -0.30170262 1.1774702 1.0597566 0.00055700185 0.00010424075 0.2345462 0.17249125
195733333333.33 0.22617933 -0.31898165 1.2547565 0.95664686 0.00057814177 9.4893447e-05 0.24731711 0.15788713
195800000000 0.20143923 -0.33512276 1.3104826 0.83895475 0.00059995317 4.3554377e-05 0.25821313 0.14023089
195866666666.67 0.18000975 -0.35216978 1.3588386 0.73223078 0.00057154882 1.6534672e-05 0.26793095 0.12328726
195933333333.33 0.14856897 -0.36222875 1.4018962 0.61025441 0.00057038019 -4.5141183e-05 0.27660722 0.10635222
196000000000 0.12353376 -0.36999109 1.4251302 0.48757002 0.00058233977 -9.0277143e-05 0.28360614 0.087256946
196066666666.67 0.10007399 -0.3812727 1.4387832 0.37125453 0.00057036482 -0.0001097762 0.28941947 0.069566004
196133333333.33 0.072304562 -0.3845216 1.4464879 0.24671561 0.00055620965 -0.00015924122 0.29451388 0.048610639
196200000000 0.044139937 -0.39163452 1.4519477 0.12559915 0.00055530493 -0.00018959382 0.29687554 0.03058356
196266666666.67 0.016583979 -0.3958239 1.4493732 0.0078840852 0.0005214155 -0.00022499144 0.29950261 0.010285422
196333333333.33 -0.0099281725 -0.39426592 1.4248763 -0.10418168 0.00051533454 -0.0002740752 0.29983702 -0.0084249545
196400000000 -0.037981421 -0.39439127 1.395375 -0.21968442 0.00049586379 -0.00029760649 0.29920712 -0.027304798
196466666666.67 -0.067222372 -0.3898457 1.3620276 -0.32828084 0.00047403303 -0.00032769292 0.29938743 -0.048231602
196533333333.33 -0.094333462 -0.38274649 1.3096048 -0.43842572 0.00044805816 -0.00036273315 0.29540083 -0.067823224
196600000000 -0.11892372 -0.37576795 1.2502745 -0.53942716 0.00043653033 -0.00038774661 0.28988886 -0.087187551
196666666666.67 -0.14488268 -0.36404455 1.1890693 -0.63252622 0.00039000562 -0.0004050025 0.28395993 -0.1066134
196733333333.33 -0.17182221 -0.35211721 1.1221945 -0.72761983 0.00037142396 -0.00045573723 0.27803499 -0.12699406
196800000000 -0.19550282 -0.33838826 1.0504726 -0.80745685 0.00032586145 -0.00047947327 0.26829973 -0.14589022
196866666666.67 -0.22166902 -0.32293606 0.96764684 -0.87542307 0.00030007702 -0.00048490151 0.25918061 -0.1630049
196933333333.33 -0.24037242 -0.30613124 0.88563991 -0.93684304 0.00025580887 -0.00050205347 0.24829713 -0.17936458
197000000000 -0.26165503 -0.28801638 0.80262899 -0.9894985 0.00021559345 -0.00052289059 0.23551495 -0.19582263
197066666666.67 -0.28134263 -0.26917541 0.71170378 -1.0441759 0.00016960323 -0.00053026393 0.22317567 -0.21203506
197133333333.33 -0.29828852 -0.24886377 0.61502767 -1.0868323 0.00015109644 -0.00054854818 0.21054965 -0.22618423
197200000000 -0.31506953 -0.22630751 0.51799679 -1.1217592 0.0001158185 -0.00055570534 0.19550782 -0.23898381
197266666666.67 -0.33223915 -0.20122916 0.41792727 -1.1490526 0.0001009941 -0.00055927329 0.18279068 -0.24956423
197333333333.33 -0.34356999 -0.1744225 0.31776386 -1.1671903 3.8577244e-05 -0.00058310223 0.15939274 -0.26600492
197400000000 -0.35571149 -0.15057318 0.21792004 -1.1776143 -2.3513487e-05 -0.00056880992 0.14203835 -0.27629897
197466666666.67 -0.36598626 -0.12348786 0.12302921 -1.1754802 -5.2163894e-05 -0.00054155209 0.12565042 -0.28488296
197533333333.33 -0.3741464 -0.09430334 0.018523276 -1.1689212 -8.7040171e-05 -0.00056472165 0.10576046 -0.29253948
197600000000 -0.3774069 -0.064773589 -0.079263598 -1.154693 -0.000141397 -0.00055711856 0.086489029 -0.29908442
197666666666.67 -0.38032341 -0.037129063 -0.17279679 -1.1343498 -0.00017151893 -0.00053107529 0.067446604 -0.30574661
197733333333.33 -0.38178372 -0.0095666349 -0.25997406 -1.1024568 -0.00020330081 -0.00053324085 0.046628557 -0.30966654
197800000000 -0.38403094 0.018595204 -0.34334934 -1.0683414 -0.00022859305 -0.00051090459 0.026496843 -0.3130208
197866666666.67 -0.37925699 0.046477489 -0.42013165 -1.0194067 -0.0002575425 -0.00049005629 0.0066249352 -0.31403479
197933333333.33 -0.37668666 0.074277893 -0.49509948 -0.97196305 -0.00028530654 -0.00046835555 -0.014281623 -0.31321695
198000000000 -0.36900032 0.10336302 -0.56862593 -0.91780484 -0.00032484278 -0.00043972829 -0.034831464 -0.31164762
198066666666.67 -0.36085826 0.13022661 -0.64479584 -0.85459822 -0.00035345685 -0.00040696881 -0.05500786 -0.30869383
198133333333.33 -0.34896794 0.15828303 -0.70636266 -0.78304535 -0.00038282786 -0.00038987384 -0.074450374 -0.3040182
198200000000 -0.33537814 0.18182763 -0.76019979 -0.71543151 -0.00041169519 -0.00036076468 -0.093263939 -0.29822624
198266666666.67 -0.32125789 0.20608887 -0.80935806 -0.63866246 -0.00043468902 -0.00034478476 -0.11264252 -0.2911045
198333333333.33 -0.30859524 0.23133042 -0.84639359 -0.57224977 -0.00044431098 -0.00031456826 -0.13150881 -0.28306988
198400000000 -0.29039896 0.25292948 -0.8794055 -0.49875697 -0.00046747798 -0.0002738995 -0.15037185 -0.27339584
198466666666.67 -0.27291259 0.26881057 -0.90466344 -0.42224455 -0.00048748337 -0.0002481523 -0.16664757 -0.26337907
198533333333.33 -0.25010565 0.28962177 -0.92504048 -0.33719519 -0.00050611456 -0.00021549035 -0.18350138 -0.2511034
198600000000 -0.22702944 0.30907881 -0.9362253 -0.25608507 -0.00051129761 -0.00017401986 -0.19860858 -0.23744199
198666666666.67 -0.20310129 0.32194468 -0.94740009 -0.18005838 -0.00051980797 -0.00015139215 -0.21312298 -0.22424136
198733333333.33 -0.17848593 0.33842224 -0.94988841 -0.10097831 -0.00052030018 -0.00011088719 -0.22663642 -0.21039632
198800000000 -0.15475263 0.34894529 -0.94266891 -0.018248364 -0.00052085269 -8.984287e-05 -0.24000788 -0.19482678
198866666666.67 -0.13006313 0.35953927 -0.93024957 0.052127361 -0.00053636759 -5.6709396e-05 -0.25221843 -0.17844953
198933333333.33 -0.10354491 0.36828426 -0.91142583 0.12431103 -0.00051523023 -9.2973642e-06 -0.26267156 -0.1616676
199000000000 -0.072511628 0.37376353 -0.88872993 0.19306846 -0.00052606111 1.8552701e-05 -0.27215397 -0.14400452
199066666666.67 -0.046420962 0.38021892 -0.86124015 0.25748628 -0.00052766223 4.6581161e-05 -0.28072441 -0.12463891
199133333333.33 -0.015370116 0.38219088 -0.82989919 0.32533574 -0.00051777484 7.4464173e-05 -0.28794497 -0.10599476
199200000000 0.012197129 0.38090962 -0.79078817 0.38556397 -0.00048792551 0.00012689177 -0.294204 -0.086587593
199266666666.67 0.041094683 0.38128203 -0.74661374 0.44339222 -0.00048616619 0.00017003415 -0.29835081 -0.06677597
199333333333.33 0.068206102 0.37925714 -0.69666612 0.49718791 -0.00046819856 0.00019453038 -0.30120099 -0.046168536
199400000000 0.10006329 0.373335 -0.65064061 0.54770905 -0.0004718868 0.0002236423 -0.30265713 -0.026720449
199466666666.67 0.12857227 0.36294612 -0.59609342 0.59111869 -0.0004555459 0.00024743332 -0.30309796 -0.0062606558
199533333333.33 0.15859187 0.35753858 -0.5438059 0.62586737 -0.00043029161 0.00027908976 -0.30090436 0.014262438
199600000000 0.18166371 0.34332421 -0.48453799 0.65883416 -0.00039012573 0.00031257735 -0.29884791 0.034594573
199666666666.67 0.2055048 0.33253962 -0.42702979 0.68891579 -0.00038843404 0.00032064196 -0.2944673 0.054754481
199733333333.33 0.23098558 0.31742296 -0.36163276 0.71237767 -0.00037065899 0.0003465304 -0.28975469 0.073991522
199800000000 0.26090306 0.29629809 -0.30041134 0.72964346 -0.00034945976 0.00038834353 -0.28296548 0.092862226
199866666666.67 0.27916226 0.2791481 -0.24281545 0.74175882 -0.0003137633 0.00038048855 -0.27462316 0.11235684
199933333333.33 0.29930201 0.25823468 -0.18043998 0.75396931 -0.00027335677 0.00040449362 -0.26608536 0.1312245
200000000000 0.31876323 0.23762459 -0.11535975 0.75501698 -0.00026352474 0.00041460339 -0.25453079 0.14948401
200066666666.67 0.33502239 0.21551561 -0.056203604 0.75201792 -0.0002335797 0.00043259139 -0.24248719 0.1665985
200133333333.33 0.3509565 0.18753283 0.007030949 0.74266368 -0.00018386808 0.00046406535 -0.23012671 0.18090713
200200000000 0.36567202 0.16140661 0.064082563 0.73204744 -0.0001574932 0.00047554137 -0.2157031 0.19580747
200266666666.67 0.38153014 0.13439061 0.118905 0.71977085 -0.00013045142 0.00048313336 -0.19976524 0.20965755
200333333333.33 0.38992563 0.10467607 0.17153969 0.69622141 -0.00012289852 0.00046881413 -0.1855396 0.22211623
200400000000 0.40274742 0.077926785 0.21727467 0.67172205 -7.0236929e-05 0.0004825978 -0.16752192 0.23347563
200466666666.67 0.4020752 0.052465305 0.26347166 0.64721841 -2.9298833e-05 0.00048451452 -0.1504716 0.24454537
200533333333.33 0.41511181 0.019159455 0.31118259 0.62343091 -3.6342972e-06 0.00047883342 -0.13246615 0.25262004
200600000000 0.41407672 -0.01294072 0.35200638 0.58541983 8.8254455e-06 0.0005067921 -0.11462669 0.26090997
200666666666.67 0.41202056 -0.043363586 0.39398074 0.54777628 2.5718196e-05 0.00048951432 -0.095225178 0.2675721
200733333333.33 0.41333598 -0.073919527 0.4293381 0.50798529 9.5119649e-05 0.00049577764 -0.07550662 0.27278131
200800000000 0.40712529 -0.10391095 0.46105775 0.4679504 0.00012515407 0.00048592658 -0.055175394 0.27665982
200866666666.67 0.39965421 -0.13839927 0.4894976 0.42501432 0.00015421413 0.00047018248 -0.034703597 0.27944472
200933333333.33 0.39389989 -0.16156964 0.51067793 0.38222942 0.0001701186 0.00044593273 -0.014027315 0.27978516
201000000000 0.38044238 -0.19430932 0.52978081 0.33504385 0.00020149043 0.00045595679 0.0057322904 0.27901477
201066666666.67 0.36613938 -0.22158766 0.54791319 0.29287678 0.0002317628 0.00044892728 0.026683688 0.2770223
201133333333.33 0.35223219 -0.25390905 0.56021208 0.24356188 0.00027649631 0.00042794144 0.046665192 0.27319786
201200000000 0.33239824 -0.27884606 0.57224411 0.2007996 0.00028559621 0.00040789126 0.066826001 0.26918131
201266666666.67 0.3199988 -0.30595586 0.57625765 0.15836795 0.00031546585 0.00036876809 0.085578807 0.26229018
201333333333.33 0.29194111 -0.32890165 0.57775086 0.11758015 0.00033464341 0.00035721107 0.10516495 0.25610873
201400000000 0.2654821 -0.34835997 0.57827324 0.069593392 0.00037837302 0.0003266139 0.12445752 0.24644311
201466666666.67 0.24273059 -0.36897114 0.57588142 0.029868424 0.00037894561 0.00029238738 0.14290461 0.23605505
201533333333.33 0.21218027 -0.39265323 0.56703699 -0.015371159 0.00039829384 0.00027300493 0.15912944 0.22466849
201600000000 0.18648665 -0.40407255 0.55986816 -0.051868644 0.00041436721 0.000264225 0.1751059 0.21218961
201666666666.67 0.15480679 -0.42001426 0.54990005 -0.089620784 0.00043653478 0.00022270795 0.19136029 0.19739942
201733333333.33 0.12917571 -0.43154752 0.5375737 -0.12631397 0.00044257994 0.00018223697 0.2041133 0.18298584
201800000000 0.097427994 -0.44018811 0.52322143 -0.16449037 0.00045616785 0.00017894134 0.21753636 0.16713698
201866666666.67 0.064011574 -0.45078576 0.50638282 -0.19922495 0.00045318916 0.0001258812 0.22930479 0.14994749
201933333333.33 0.03425917 -0.45046329 0.48790473 -0.23305073 0.00046179618 0.0001098767 0.24056308 0.13216797
202000000000 0.0014628991 -0.45267603 0.46692368 -0.26799756 0.00046608338 9.014595e-05 0.24701704 0.12046762
202066666666.67 -0.029264018 -0.45510203 0.4423053 -0.29928693 0.00046694049 4.7400841e-05 0.25666901 0.099358007
202133333333.33 -0.063768685 -0.4523392 0.41696376 -0.33235148 0.0004720467 3.6072663e-05 0.26371893 0.078592271
202200000000 -0.095084578 -0.44566256 0.38854548 -0.36110169 0.00047191555 -2.5585323e-06 0.26984379 0.058660395
202266666666.67 -0.12457512 -0.43929461 0.36173886 -0.38619563 0.00046464457 -2.7138478e-05 0.27487746 0.038497284
202333333333.33 -0.15330154 -0.42669007 0.32619479 -0.4105342 0.00046696936 -5.7088546e-05 0.27768123 0.018727243
202400000000 -0.18355429 -0.41537681 0.29196015 -0.42910171 0.00047297438 -0.00010239106 0.27979988 -0.0028724596
202466666666.67 -0.21374255 -0.40067792 0.25534707 -0.45409837 0.00047209463 -0.00014098502 0.28093076 -0.021573916
202533333333.33 -0.23814085 -0.38570327 0.21404876 -0.46461788 0.00044960078 -0.00014998035 0.27761737 -0.041973308
202600000000 -0.26305994 -0.37000829 0.17497151 -0.47686905 0.0004414327 -0.0001826207 0.27735719 -0.062742509
202666666666.67 -0.28720856 -0.34988895 0.13576749 -0.48673049 0.0004341274 -0.00020178326 0.27119976 -0.085672349
202733333333.33 -0.31127772 -0.33216721 0.09415938 -0.48968959 0.00042391653 -0.00024314599 0.26413462 -0.10859797
202800000000 -0.3338007 -0.30880532 0.053556226 -0.49119759 0.00039299746 -0.00027903388 0.25454056 -0.1319553
202866666666.67 -0.35687345 -0.28792703 0.014598124 -0.49094084 0.00038806835 -0.00028803427 0.24596569 -0.15038934
202933333333.33 -0.37367889 -0.26255384 -0.023171961 -0.48614109 0.00036203096 -0.00031292051 0.23600525 -0.16900128
203000000000 -0.39162114 -0.23912124 -0.060351297 -0.47836986 0.00034280788 -0.00033509056 0.22412772 -0.18582965
203066666666.67 -0.40648881 -0.21066743 -0.096176296 -0.46249917 0.00033321229 -0.00035615434 0.21506415 -0.19807538
203133333333.33 -0.419586 -0.1838886 -0.13051812 -0.45031375 0.00029994803 -0.00037901694 0.20102045 -0.21440375
203200000000 -0.43369022 -0.16083993 -0.16502188 -0.43389145 0.00026346699 -0.00039591448 0.1852017 -0.23059525
203266666666.67 -0.44278723 -0.13045834 -0.19663054 -0.41632107 0.00023592798 -0.0004222219 0.16477442 -0.24781701
203333333333.33 -0.4512603 -0.1040886 -0.22779673 -0.39274514 0.00022452013 -0.00043692547 0.14641277 -0.26062024
203400000000 -0.45840704 -0.075399868 -0.25632524 -0.36718714 0.00020065236 -0.00043426218 0.1284111 -0.27213418
203466666666.67 -0.46334857 -0.043859869 -0.28063056 -0.34347141 0.00016589329 -0.00046988437 0.11118345 -0.28204662
203533333333.33 -0.46438122 -0.012764966 -0.3035875 -0.31581956 0.00013648618 -0.00049749966 0.089110225 -0.29137272
203600000000 -0.46244702 0.015438154 -0.31975549 -0.2904166 0.00011599924 -0.00047428018 0.069965668 -0.29947865
203666666666.67 -0.46225441 0.048332021 -0.33960769 -0.25911456 8.3363804e-05 -0.00048333613 0.05340445 -0.30337957
203733333333.33 -0.45915571 0.077051505 -0.35442066 -0.22975987 4.5816676e-05 -0.00048810442 0.03307391 -0.30913228
203800000000 -0.45211151 0.1103694 -0.36817405 -0.20043647 8.0255977e-06 -0.00048156898 0.0078270249 -0.31455976
203866666666.67 -0.44290307 0.14069644 -0.3785896 -0.16603965 -1.3882411e-05 -0.00047769331 -0.016708285 -0.31736004
203933333333.33 -0.43630815 0.16749163 -0.38550609 -0.136972 -5.2494535e-05 -0.00048236214 -0.037120357 -0.31895053
204000000000 -0.42411223 0.1987862 -0.39083895 -0.1063531 -7.9866761e-05 -0.00048856792 -0.057839639 -0.31725296
204066666666.67 -0.4125312 0.2204437 -0.39410865 -0.080201998 -0.00011738125 -0.00046467345 -0.083285235 -0.31543213
204133333333.33 -0.39587021 0.24773435 -0.39170206 -0.046605766 -0.00015490776 -0.00048941874 -0.10813561 -0.31003314
204200000000 -0.37667304 0.27506268 -0.38903204 -0.01648806 -0.00018190476 -0.00046387519 -0.13117632 -0.3034603
204266666666.67 -0.35495356 0.29962829 -0.38526013 0.015634611 -0.00020425004 -0.00045023588 -0.15197173 -0.29613411
204333333333.33 -0.3362031 0.3213999 -0.38050312 0.043205738 -0.00022780547 -0.0004378962 -0.17276184 -0.28758049
204400000000 -0.31387544 0.34113929 -0.3715806 0.071404293 -0.00026975438 -0.00041789841 -0.19522293 -0.2763145
204466666666.67 -0.29060525 0.36237985 -0.36135474 0.099828556 -0.00028580127 -0.00040986016 -0.21693787 -0.26171258
204533333333.33 -0.26896486 0.3812364 -0.3467778 0.12464447 -0.00032185903 -0.00039066823 -0.23568016 -0.24815643
204600000000 -0.24541621 0.39579612 -0.3332316 0.14962898 -0.00033912456 -0.00035192931 -0.254296 -0.23217651
204666666666.67 -0.21466684 0.41165215 -0.31733489 0.1728496 -0.00036102699 -0.00034009281 -0.27123469 -0.21367483
204733333333.33 -0.18913153 0.42526221 -0.30121192 0.19190045 -0.00039777264 -0.00030861743 -0.28611138 -0.1962187
204800000000 -0.15894045 0.43458053 -0.28327191 0.21312894 -0.00039629656 -0.00029515175 -0.30080584 -0.1765077
204866666666.67 -0.12835154 0.44564468 -0.26224267 0.22952731 -0.00041524827 -0.00026753565 -0.31315419 -0.15592815
204933333333.33 -0.097950488 0.45186678 -0.24294235 0.24550822 -0.00042831886 -0.00025997614 -0.32329959 -0.13358566
205000000000 -0.069193825 0.4569495 -0.22225401 0.25922459 -0.00043736858 -0.00021969347 -0.3314206 -0.11235759
205066666666.67 -0.039384544 0.46119955 -0.20054829 0.27206439 -0.00045022857 -0.00020048038 -0.33845761 -0.090186469
205133333333.33 -0.0091197491 0.46326226 -0.17881896 0.2852996 -0.00048931304 -0.00014818988 -0.34488225 -0.068332657
205200000000 0.022041678 0.46075648 -0.15636627 0.29421344 -0.00047462323 -0.0001231416 -0.34937632 -0.045234129
205266666666.67 0.056934789 0.45684645 -0.13078754 0.30444303 -0.00047959411 -8.8153633e-05 -0.35217717 -0.022947926
205333333333.33 0.083458304 0.45347634 -0.10886537 0.31110212 -0.00050952041 -5.9122307e-05 -0.35315183 0.00088346004
205400000000 0.11624479 0.44857544 -0.084245868 0.31703413 -0.00048111612 -2.3030923e-05 -0.35243693 0.022797346
205466666666.67 0.14103377 0.43651801 -0.058614336 0.31911257 -0.00048786888 6.2699255e-06 -0.35212892 0.046418071
205533333333.33 0.1740896 0.42910099 -0.033677384 0.32165971 -0.00049890589 2.6913391e-05 -0.34780169 0.069045246
205600000000 0.19974992 0.41521022 -0.0086035356 0.32027912 -0.00049429969 3.6510508e-05 -0.3430683 0.090402752
205666666666.67 0.2248272 0.39774632 0.016384453 0.31708109 -0.00049177336 9.5410185e-05 -0.33658469 0.11294995
205733333333.33 0.25578648 0.38059843 0.040671356 0.31190038 -0.00049013749 0.00011989371 -0.32918909 0.13318023
205800000000 0.27422053 0.35837787 0.062880166 0.30491662 -0.00048588245 0.00014753095 -0.32022405 0.15390842
205866666666.67 0.30014458 0.3413859 0.087033696 0.29757196 -0.0004792356 0.00017796425 -0.31041083 0.17518497
205933333333.33 0.32150918 0.31737471 0.10816405 0.28808385 -0.00045943781 0.0002217328 -0.29912603 0.19522646
206000000000 0.33799991 0.29648161 0.13150822 0.27765465 -0.00046200136 0.00022663292 -0.28783095 0.21338996
206066666666.67 0.36164185 0.26968172 0.14988281 0.26131201 -0.00042417669 0.00025836294 -0.27343413 0.23085931
206133333333.33 0.3747085 0.24344595 0.16700946 0.2483615 -0.0004282592 0.00029496039 -0.25942683 0.24781501
206200000000 0.38973039 0.21297285 0.1852683 0.23246321 -0.00039536902 0.00032571354 -0.24441394 0.26233447
206266666666.67 0.40373328 0.19167086 0.20125063 0.21539055 -0.0003663323 0.00034919183 -0.22633728 0.27723259
206333333333.33 0.41407216 0.15784752 0.21553007 0.19893135 -0.00036677116 0.00036810717 -0.20899929 0.29161039
206400000000 0.42489135 0.1271387 0.22884181 0.17771316 -0.00033643894 0.00040842133 -0.18967551 0.3032006
206466666666.67 0.43331859 0.098717913 0.23845452 0.16052639 -0.00029918717 0.00042548153 -0.17048743 0.31500047
206533333333.33 0.43537956 0.066372156 0.2467567 0.13840923 -0.00029135932 0.00043472787 -0.15197951 0.32506067
206600000000 0.43853801 0.03189221 0.25706372 0.11942311 -0.00026521931 0.00047028769 -0.13133794 0.33434135
206666666666.67 0.43928522 0.0023633987 0.2619381 0.099337265 -0.00021456552 0.00046084644 -0.1100298 0.34166396
206733333333.33 0.43695015 -0.026934102 0.26504061 0.079869948 -0.0002050058 0.00050538249 -0.090123028 0.34771392
206800000000 0.43786514 -0.058387697 0.26727003 0.057913266 -0.00016456196 0.00051695021 -0.067406133 0.35113201
206866666666.67 0.42610019 -0.085502848 0.27034765 0.037299916 -0.00013480785 0.00052274007 -0.045535579 0.35671088
206933333333.33 0.41557941 -0.11893171 0.26941296 0.017350078 -9.939837e-05 0.00051074161 -0.024257652 0.35830104
207000000000 0.4048093 -0.15071809 0.26605406 -0.006017603 -6.7352186e-05 0.00053779961 -0.0012169331 0.3602992
207066666666.67 0.3966158 -0.17596895 0.26515108 -0.024789698 -3.9380422e-05 0.00054676033 0.021787211 0.35941011
207133333333.33 0.38535848 -0.20250303 0.25999242 -0.045410383 -2.1820888e-05 0.00055710855 0.046105705 0.35635263
207200000000 0.36535057 -0.23157628 0.24968129 -0.067082524 3.6927315e-05 0.00053911004 0.067440629 0.35148194
207266666666.67 0.35017854 -0.25794438 0.24383718 -0.083700627 4.8447473e-05 0.00055992359 0.089783654 0.34498265
207333333333.33 0.32706377 -0.27936435 0.235991 -0.10087338 0.00010603326 0.00055443298 0.11036869 0.33861902
207400000000 0.30271596 -0.30599403 0.22414832 -0.11701578 0.00013808525 0.00054184237 0.12914172 0.33163187
207466666666.67 0.27968535 -0.32436109 0.20822337 -0.13330603 0.00017433897 0.00054150034 0.15180895 0.32214844
207533333333.33 0.25496602 -0.34385312 0.20092124 -0.1474306 0.0002145044 0.00051789114 0.17151664 0.31119955
207600000000 0.23058783 -0.3616513 0.18585996 -0.15938491 0.00024161325 0.00050474756 0.19065866 0.29873338
207666666666.67 0.1987642 -0.37267175 0.17156732 -0.17367756 0.00026808266 0.00050607172 0.20858273 0.285043
207733333333.33 0.17023489 -0.3894653 0.15673119 -0.18324544 0.00030802941 0.00046939278 0.22576651 0.27111003
207800000000 0.14520881 -0.40446025 0.14144628 -0.19292153 0.0003381726 0.00045470716 0.23985054 0.25497505
207866666666.67 0.111521 -0.40691668 0.12321854 -0.20064671 0.00036125784 0.00044343784 0.25611991 0.23824751
207933333333.33 0.085432306 -0.4142136 0.10908647 -0.20704141 0.00040178315 0.0004098232 0.26766223 0.22091503
208000000000 0.052507743 -0.42194083 0.091858469 -0.21260609 0.00041829463 0.00039744779 0.28167629 0.20261185
208066666666.67 0.016127367 -0.42649183 0.072826572 -0.21759221 0.00044736959 0.00035050209 0.29308641 0.18403374
208133333333.33 -0.013623014 -0.42789987 0.055655971 -0.22196545 0.00048175012 0.00032845518 0.30305937 0.16364615
208200000000 -0.04264757 -0.42329425 0.040146068 -0.22212525 0.00049639208 0.00030236359 0.3115558 0.14240703
208266666666.67 -0.080066606 -0.41593951 0.020222466 -0.22025426 0.00052614231 0.00028109914 0.31903794 0.12116682
208333333333.33 -0.11144622 -0.41473919 0.0062253922 -0.22080995 0.00052109943 0.00023789363 0.32381293 0.10287742
208400000000 -0.14063662 -0.41019931 -0.0097835362 -0.21838886 0.00057276175 0.00020758735 0.32917172 0.08065246
208466666666.67 -0.16938862 -0.39189339 -0.027082926 -0.21554048 0.00058066356 0.00016558728 0.3343406 0.058253329
208533333333.33 -0.19748715 -0.38000819 -0.042530738 -0.2104387 0.00058083003 0.00012830508 0.33485961 0.034821481
208600000000 -0.22848062 -0.36529571 -0.060513876 -0.20361814 0.00059363781 7.5290969e-05 0.33623463 0.010111645
208666666666.67 -0.25814629 -0.34766868 -0.073300801 -0.19698887 0.00058785913 3.1746098e-05 0.33314782 -0.012338597
208733333333.33 -0.28144073 -0.32955685 -0.086816788 -0.19020949 0.00060098839 2.802466e-06 0.32987323 -0.032450691
208800000000 -0.3017326 -0.30603874 -0.10037103 -0.18176834 0.00059607177 -3.4653043e-05 0.32459596 -0.055791438
208866666666.67 -0.32855317 -0.28456396 -0.11004074 -0.16879524 0.00059137697 -7.2625851e-05 0.31846175 -0.073903039
208933333333.33 -0.34829497 -0.25930893 -0.1220738 -0.16219987 0.00060962909 -0.00011428492 0.31217575 -0.094361521
209000000000 -0.36640352 -0.2340368 -0.1332988 -0.14989251 0.00059257681 -0.00013960816 0.30296957 -0.11490729
209066666666.67 -0.38479954 -0.20835 -0.14315718 -0.13787983 0.00058019406 -0.00018900614 0.29390299 -0.13316301
209133333333.33 -0.39977431 -0.17752413 -0.14934918 -0.12560079 0.00057037041 -0.00024136514 0.28220066 -0.15301785
209200000000 -0.41722834 -0.14868575 -0.16030364 -0.11337116 0.00056568166 -0.0002691799 0.26912746 -0.17131773
209266666666.67 -0.4255957 -0.12003928 -0.16615206 -0.098960921 0.00053406227 -0.00032038061 0.25670481 -0.18749291
209333333333.33 -0.43582579 -0.084382258 -0.16998489 -0.087390408 0.00048807979 -0.00035557206 0.24027154 -0.204504
209400000000 -0.43818045 -0.053542688 -0.17450607 -0.072229996 0.00047001796 -0.00038189848 0.22455482 -0.21845323
209466666666.67 -0.44663438 -0.024193078 -0.17746103 -0.057823557 0.0004547697 -0.00042726484 0.2072898 -0.23325709
209533333333.33 -0.44803444 0.0048430525 -0.17974031 -0.04482764 0.00043048218 -0.00044937414 0.19043986 -0.24663694
209600000000 -0.44828469 0.038008526 -0.18009317 -0.03196504 0.00039078819 -0.00048775948 0.17164606 -0.25785035
209666666666.67 -0.44720191 0.071969107 -0.18032211 -0.017157055 0.00036901017 -0.00051329698 0.15215287 -0.26851431
209733333333.33 -0.43975559 0.1065871 -0.18009853 -0.0028504655 0.00033140078 -0.00051858474 0.13203737 -0.27718174
209800000000 -0.43866777 0.1424869 -0.17820272 0.011000525 0.00029432977 -0.00054614921 0.11073703 -0.28479666
209866666666.67 -0.42361996 0.16903745 -0.17272516 0.02159198 0.00026739595 -0.00055401819 0.090264671 -0.28840989
209933333333.33 -0.41578168 0.20138964 -0.17187962 0.03421618 0.0002243271 -0.00060057751 0.068673603 -0.29411486
210000000000 -0.39879841 0.23166421 -0.1655838 0.046854779 0.0001835709 -0.00060726266 0.047336072 -0.2966744
210066666666.67 -0.38668808 0.26395652 -0.16072869 0.060386032 0.00014451845 -0.00062899501 0.022996841 -0.29770231
210133333333.33 -0.37241435 0.28930202 -0.15416212 0.071367979 0.00010575374 -0.00061604782 0.00053914636 -0.2978406
210200000000 -0.35445592 0.31448832 -0.14661695 0.080761723 7.260358e-05 -0.00062832038 -0.020795792 -0.2947633
210266666666.67 -0.32841879 0.34042877 -0.13839377 0.09019731 1.4202915e-05 -0.00064139406 -0.041571755 -0.29048571
210333333333.33 -0.30549785 0.36579266 -0.12981763 0.099677935 -2.6441063e-05 -0.00063544238 -0.064521365 -0.28528762
210400000000 -0.28415295 0.38996047 -0.1191204 0.10774665 -7.785279e-05 -0.00063980807 -0.086053804 -0.27883223
210466666666.67 -0.2552965 0.40698946 -0.11296254 0.11561079 -0.00010799002 -0.00062255492 -0.10708798 -0.27125344
210533333333.33 -0.23123534 0.4279311 -0.1028632 0.12035335 -0.00016040701 -0.00061946351 -0.12733927 -0.26078314
210600000000 -0.20232973 0.44400081 -0.091474503 0.12813374 -0.000215691 -0.00060363847 -0.1462388 -0.24930181
210666666666.67 -0.17293048 0.46092483 -0.080622494 0.13184744 -0.00024759333 -0.00058604614 -0.16470361 -0.23715948
210733333333.33 -0.14193678 0.47343004 -0.071416661 0.1371962 -0.00027979468 -0.00057944038 -0.18130352 -0.22359298
210800000000 -0.1089128 0.47840917 -0.059144605 0.14090422 -0.00032941462 -0.00055522117 -0.19887576 -0.20885126
210866666666.67 -0.080172345 0.49078968 -0.049452223 0.14384368 -0.00033665614 -0.00052673637 -0.21355943 -0.19140367
210933333333.33 -0.045146987 0.49803236 -0.038029503 0.1477215 -0.00038100683 -0.00050627708 -0.22839852 -0.17416404
211000000000 -0.018925399 0.50072432 -0.025560543 0.14653231 -0.00042568194 -0.00047767017 -0.2416586 -0.1545426
211066666666.67 0.017931312 0.50616837 -0.012828823 0.14681688 -0.00044004444 -0.00045095681 -0.25320941 -0.13457334
211133333333.33 0.054124892 0.50192744 -0.0041213147 0.14595436 -0.00048219415 -0.00042853202 -0.26199955 -0.11465354
211200000000 0.082729131 0.50314999 0.0058414191 0.14394133 -0.00050798024 -0.00037444924 -0.27154768 -0.092703827
211266666666.67 0.12101622 0.49738383 0.017765284 0.1405191 -0.00053118553 -0.00035541976 -0.27697891 -0.071756706
211333333333.33 0.15366973 0.48665917 0.025947921 0.13846532 -0.00055332924 -0.00032030512 -0.28286001 -0.050360821
211400000000 0.1872104 0.48187891 0.036410689 0.13503824 -0.00058292208 -0.00027348293 -0.28580144 -0.028033514
211466666666.67 0.2210757 0.47281155 0.046594124 0.12929046 -0.00060121104 -0.00023538053 -0.28798404 -0.0046782196
211533333333.33 0.25122887 0.45526779 0.054186031 0.12503108 -0.0006198957 -0.00020055861 -0.28828087 0.01784756
211600000000 0.27622163 0.44079068 0.062104724 0.11969344 -0.00061303971 -0.00017411847 -0.28647068 0.039749533
211666666666.67 0.30488008 0.42639703 0.070948355 0.11442674 -0.00063348317 -0.00011948177 -0.28398842 0.064204752
211733333333.33 0.33590257 0.40676856 0.078155898 0.10566752 -0.00063678948 -8.8281013e-05 -0.2789849 0.085630313
211800000000 0.3565942 0.38379949 0.085069083 0.097988136 -0.00064979144 -3.4484954e-05 -0.27246094 0.10841417
211866666666.67 0.38468969 0.36372724 0.091721073 0.089071892 -0.00064394134 1.5945276e-05 -0.26350456 0.13125902
211933333333.33 0.40719727 0.34221509 0.095689073 0.08307492 -0.00063460058 5.2369425e-05 -0.25514436 0.15109174
212000000000 0.43671912 0.31488585 0.1015062 0.073441006 -0.00063694653 7.5376767e-05 -0.2435222 0.16940154
212066666666.67 0.45107621 0.28954339 0.10575793 0.06511566 -0.00062362186 0.00012021078 -0.23273405 0.19026919
212133333333.33 0.46681377 0.26226336 0.11046166 0.057775788 -0.00061753183 0.00016726328 -0.21813734 0.20926756
212200000000 0.48563269 0.2324703 0.11229777 0.045744948 -0.00060710206 0.00020705181 -0.20200492 0.22717136
212266666666.67 0.49804753 0.20297152 0.11531931 0.038636547 -0.00059497252 0.00022365688 -0.18597901 0.24448135
212333333333.33 0.51844728 0.17675452 0.11811866 0.033470709 -0.00058804173 0.00029079954 -0.16815078 0.25846511
212400000000 0.52552295 0.13979058 0.11720387 0.022283567 -0.00057137647 0.00032121825 -0.14954072 0.27305025
212466666666.67 0.53105593 0.10821396 0.11730134 0.011562034 -0.00054344651 0.00036974117 -0.13037729 0.28626353
212533333333.33 0.54592216 0.075846642 0.11614677 0.0049010515 -0.00051461172 0.000397633 -0.10842389 0.29649559
212600000000 0.54503888 0.044379994 0.11340503 -0.0033784769 -0.00048431393 0.00042207394 -0.088038079 0.30787566
212666666666.67 0.54523408 0.0083146766 0.11321436 -0.012503667 -0.00048176723 0.0004614995 -0.066087596 0.31573781
212733333333.33 0.54723114 -0.023182318 0.10897069 -0.022834893 -0.00042252307 0.00049033907 -0.041301947 0.32318699
212800000000 0.54503751 -0.05877991 0.10683626 -0.028734639 -0.00041185258 0.0005070765 -0.019043677 0.32784218
212866666666.67 0.54228479 -0.095042497 0.10299152 -0.03638421 -0.00039884311 0.0005417685 0.0039950758 0.33186597
212933333333.33 0.53214645 -0.12788591 0.099050842 -0.044126287 -0.00034966914 0.0005628689 0.029347882 0.334254
213000000000 0.52421331 -0.15633114 0.093863182 -0.051390767 -0.00030965108 0.00057835731 0.053470626 0.33377174
213066666666.67 0.51861429 -0.19257136 0.090585843 -0.057814412 -0.00026487239 0.00060763664 0.076536611 0.33145174
213133333333.33 0.50510919 -0.21792565 0.082973219 -0.063493073 -0.00023804222 0.00059718243 0.10110468 0.32831675
213200000000 0.48781809 -0.25203279 0.078531869 -0.068499416 -0.00020551408 0.00063417398 0.12444647 0.32565215
213266666666.67 0.47645798 -0.28130984 0.072908275 -0.073725075 -0.00015572869 0.00064031326 0.14941981 0.31873718
213333333333.33 0.45400795 -0.30237335 0.065693282 -0.080480002 -0.00011208196 0.00065688608 0.17327975 0.30992773
213400000000 0.43794411 -0.33916026 0.055854939 -0.085362792 -8.6062428e-05 0.00066157361 0.19219562 0.30124018
213466666666.67 0.41482833 -0.36331657 0.051836759 -0.086832628 -4.8111018e-05 0.00067113445 0.21582979 0.29183546
213533333333.33 0.39157361 -0.38791558 0.044195317 -0.090370126 -1.1885058e-06 0.00065409893 0.23894373 0.27788252
213600000000 0.36087531 -0.41052067 0.036997359 -0.091479652 4.0768209e-05 0.0006579982 0.26044971 0.26196998
213666666666.67 0.33871898 -0.425899 0.02961579 -0.092607684 5.6673452e-05 0.00067184016 0.27781346 0.24654536
213733333333.33 0.31541824 -0.45069516 0.023358548 -0.093513496 0.00011443788 0.00066411291 0.29502568 0.23042056
213800000000 0.28845403 -0.46562833 0.01657862 -0.095230199 0.00016435665 0.00065213937 0.31254828 0.21102056
213866666666.67 0.2610516 -0.48167408 0.0060610697 -0.093813837 0.00021015856 0.00065079203 0.32601643 0.19224635
213933333333.33 0.23107098 -0.49898687 0.0004352883 -0.093252532 0.00023930389 0.00062821113 0.3409442 0.17570519
214000000000 0.19496515 -0.51109385 -0.0063454211 -0.091753006 0.00029361714 0.00061023218 0.35621274 0.15348428
214066666666.67 0.16947472 -0.51655459 -0.012390699 -0.089723565 0.00032804083 0.00058665179 0.36732918 0.12934625
214133333333.33 0.13606015 -0.52768183 -0.017848769 -0.089620173 0.00036497568 0.000576241 0.37713799 0.10769072
214200000000 0.098761827 -0.53347147 -0.025002392 -0.089090839 0.00039597601 0.00055792264 0.38849944 0.087542541
214266666666.67 0.065922707 -0.53631616 -0.030968195 -0.084926061 0.00042850035 0.00053735136 0.39578617 0.062853932
214333333333.33 0.0292283 -0.53809226 -0.037682369 -0.082243934 0.00047746662 0.00050580403 0.40209818 0.034575701
214400000000 -0.00023154356 -0.54033494 -0.040985584 -0.075967722 0.00050254224 0.00046743732 0.40507302 0.011981155
214466666666.67 -0.031207636 -0.53786147 -0.048184492 -0.074002653 0.00052095833 0.00043214849 0.40961981 -0.012928292
214533333333.33 -0.067606658 -0.52830756 -0.051072367 -0.070124902 0.00054425874 0.00040619035 0.41020525 -0.037563488
214600000000 -0.10010444 -0.52512783 -0.056272596 -0.067719571 0.00058712228 0.0003671197 0.41191471 -0.062798813
214666666666.67 -0.12662894 -0.51175094 -0.060068104 -0.058485009 0.00061325217 0.00033142066 0.40705496 -0.089605965
214733333333.33 -0.16288978 -0.50518632 -0.062069185 -0.055547807 0.00062404934 0.00030584019 0.40550804 -0.11055648
214800000000 -0.19176564 -0.48709232 -0.065926068 -0.051082768 0.00064179004 0.00026626186 0.39764225 -0.13909648
214866666666.67 -0.21960296 -0.47197723 -0.068518952 -0.044752307 0.00066176063 0.0002207342 0.39129844 -0.16230378
214933333333.33 -0.24956881 -0.45746088 -0.071664445 -0.040425576 0.00067326741 0.00017180733 0.3833743 -0.1852999
215000000000 -0.2771889 -0.44056624 -0.072916754 -0.033263374 0.000686132 0.00012156287 0.37118536 -0.21037555
215066666666.67 -0.30428305 -0.42344037 -0.076696366 -0.02781488 0.00069478422 9.0520742e-05 0.36368459 -0.23125294
215133333333.33 -0.33425766 -0.39680624 -0.077127032 -0.023186581 0.00069454178 4.5060129e-05 0.34944275 -0.25238505
215200000000 -0.3524816 -0.37403488 -0.078431256 -0.017305346 0.00070657674 -8.3946361e-06 0.33612394 -0.27585232
215266666666.67 -0.3750647 -0.3518585 -0.07728979 -0.011851765 0.0007129226 -5.3668133e-05 0.31896624 -0.29699233
215333333333.33 -0.39211997 -0.3207978 -0.07651116 -0.0069947895 0.00070551597 -0.00011029703 0.30089703 -0.31708109
215400000000 -0.41339356 -0.29680917 -0.076883674 0.002416987 0.00069849746 -0.00015283798 0.28499708 -0.33645046
215466666666.67 -0.42892033 -0.26721448 -0.077101938 0.0056744553 0.00068650715 -0.00019088321 0.2660214 -0.35414615
215533333333.33 -0.44400615 -0.23112904 -0.07708367 0.010979697 0.00066952646 -0.00024381651 0.24650428 -0.36959976
215600000000 -0.45989025 -0.20398164 -0.075591318 0.013974154 0.00066388655 -0.00028018974 0.22392623 -0.38461187
215666666666.67 -0.46792278 -0.17092264 -0.074171677 0.020855898 0.00064959197 -0.00033292448 0.20098117 -0.39811945
215733333333.33 -0.46995264 -0.14036673 -0.069097869 0.027255759 0.0006172522 -0.0003658848 0.18075529 -0.40994895
215800000000 -0.47834009 -0.1037253 -0.067984357 0.029591143 0.0006012643 -0.00042320852 0.15459149 -0.42186436
215866666666.67 -0.47909176 -0.073121861 -0.0653117 0.032508172 0.00057289406 -0.00045363524 0.13108109 -0.42875963
215933333333.33 -0.48255318 -0.039544307 -0.062837154 0.039581034 0.00053374382 -0.0004980177 0.1057367 -0.43833062
216000000000 -0.48158073 -0.0055158585 -0.059615806 0.043276034 0.00049944641 -0.00052232976 0.079224899 -0.44511342
216066666666.67 -0.48248973 0.025188044 -0.056336451 0.046269119 0.00047843365 -0.00055791781 0.054200336 -0.45003304
216133333333.33 -0.46854788 0.062864974 -0.051823959 0.049857952 0.000428867 -0.00061671803 0.027614906 -0.45200515
216200000000 -0.46441883 0.090794921 -0.049620718 0.052791927 0.00038921827 -0.00063405011 0.00054398179 -0.4532218
216266666666.67 -0.45499107 0.12574431 -0.044585615 0.055329248 0.00034662781 -0.00064530398 -0.025789231 -0.45194632
216333333333.33 -0.44021246 0.15600111 -0.039415702 0.059037648 0.00031358804 -0.0006790554 -0.05199587 -0.45013854
216400000000 -0.4252024 0.18499948 -0.033888672 0.061787471 0.00025085782 -0.00069669442 -0.078528278 -0.44560689
216466666666.67 -0.41159448 0.21668717 -0.029504362 0.06137576 0.00021032702 -0.00071499078 -0.10358135 -0.43941712
216533333333.33 -0.39611819 0.24507581 -0.026019555 0.063745931 0.00017974745 -0.00073509396 -0.12849949 -0.42963949
216600000000 -0.37312657 0.26948684 -0.021990102 0.065024957 0.0001222445 -0.00073713379 -0.15169716 -0.42097321
216666666666.67 -0.34714526 0.29843396 -0.017536316 0.066197909 7.2496245e-05 -0.00075084716 -0.17202517 -0.41125104
216733333333.33 -0.31988791 0.31995118 -0.013908288 0.068215758 1.1527445e-05 -0.00076534098 -0.19684568 -0.40072566
216800000000 -0.29897472 0.3442201 -0.0068060849 0.066605046 -3.6526493e-05 -0.00075391302 -0.22006527 -0.39032918
216866666666.67 -0.26916635 0.35770154 -0.003131289 0.066424012 -8.2823855e-05 -0.00075102248 -0.24365878 -0.37605411
216933333333.33 -0.23821361 0.38116556 0.0024787318 0.064829558 -0.0001413165 -0.00075405877 -0.26558667 -0.35817745
217000000000 -0.21372059 0.39889476 0.007262622 0.065209642 -0.00018445886 -0.00074318773 -0.28627625 -0.34185684
217066666666.67 -0.18021074 0.41028705 0.011495826 0.063673757 -0.00024211581 -0.00072581624 -0.30391583 -0.32114366
217133333333.33 -0.14801817 0.4233228 0.015851013 0.062334094 -0.0002919457 -0.00070590177 -0.32228532 -0.30344221
217200000000 -0.11485237 0.42944497 0.021078859 0.060326021 -0.00034952414 -0.00069461507 -0.34081328 -0.28116086
217266666666.67 -0.080249846 0.43903759 0.024759991 0.060316876 -0.00037982099 -0.0006619629 -0.353982 -0.26110089
217333333333.33 -0.053803116 0.43619898 0.028421775 0.057279129 -0.00043906647 -0.00064725621 -0.3693915 -0.23878393
217400000000 -0.013730079 0.44203812 0.03258634 0.0551957 -0.0004840063 -0.00062695122 -0.38065878 -0.21430707
217466666666.67 0.01872687 0.4398852 0.036196452 0.051355377 -0.00052236172 -0.00058496901 -0.39348647 -0.19057964
217533333333.33 0.058493122 0.44214499 0.038599782 0.049586587 -0.00056057528 -0.00055211037 -0.40098158 -0.16567421
217600000000 0.09192463 0.43277562 0.042814258 0.044417396 -0.00060764648 -0.00050680083 -0.40733472 -0.14067128
217666666666.67 0.11891422 0.42126042 0.044093519 0.040184587 -0.00064418442 -0.00046026256 -0.41482693 -0.11329932
217733333333.33 0.15697008 0.41232973 0.046473213 0.038555264 -0.00067966152 -0.00042421499 -0.41801941 -0.08845675
217800000000 0.18424889 0.39723989 0.050934609 0.035884421 -0.00068127556 -0.00038164807 -0.42067957 -0.06264817
217866666666.67 0.21785825 0.38501444 0.052466225 0.031340633 -0.00073719351 -0.00033660128 -0.42099264 -0.033007056
217933333333.33 0.24524921 0.36361146 0.053364165 0.027293002 -0.00075232919 -0.00028352917 -0.41943932 -0.0089082122
218000000000 0.27874595 0.34875029 0.05495232 0.023240775 -0.00075792643 -0.00023131543 -0.41759789 0.017765477
218066666666.67 0.30321836 0.32266358 0.056628406 0.019406695 -0.00077461096 -0.00016924283 -0.41193587 0.04442966
218133333333.33 0.32852545 0.29997998 0.053882577 0.012861256 -0.00079997221 -0.00010591077 -0.40367183 0.071124479
218200000000 0.35722587 0.27853134 0.058386769 0.011147324 -0.00080071337 -6.3767249e-05 -0.3974303 0.095116928
218266666666.67 0.37383801 0.24881288 0.055816941 0.0059161484 -0.00081479165 -2.2876397e-05 -0.38632789 0.12287112
218333333333.33 0.39514524 0.21646823 0.05711709 0.00066171231 -0.00081124099 4.5249049e-05 -0.37582904 0.14680359
218400000000 0.40841112 0.19027652 0.059313245 -0.0042786933 -0.00079667231 0.00010443322 -0.36155123 0.17002922
218466666666.67 0.43381017 0.15904281 0.055848662 -0.006969044 -0.0007885063 0.0001537714 -0.34489501 0.19185415
218533333333.33 0.45059034 0.12130216 0.056013241 -0.012302767 -0.00078512647 0.00021828117 -0.33110252 0.2108908
218600000000 0.445858 0.087682329 0.055696175 -0.014169118 -0.00075611245 0.0002695813 -0.31443012 0.23305288
218666666666.67 0.45941585 0.056462921 0.053695612 -0.017956164 -0.00073850376 0.00031334025 -0.29460877 0.25126147
218733333333.33 0.46932068 0.024545029 0.051874131 -0.022924665 -0.0007527835 0.00035886577 -0.2735664 0.26632252
218800000000 0.47459328 -0.021639317 0.047586884 -0.028144253 -0.00071173895 0.00041257383 -0.25374708 0.28150904
218866666666.67 0.46085119 -0.045195844 0.044281896 -0.02873796 -0.00067857298 0.00045409845 -0.23027034 0.29782677
218933333333.33 0.47549564 -0.081148498 0.042673633 -0.031923242 -0.00065265159 0.00050678186 -0.20588803 0.31015509
219000000000 0.46340984 -0.11921056 0.038711362 -0.035386443 -0.00060515909 0.00055250584 -0.1829645 0.32199711
219066666666.67 0.45551828 -0.15164492 0.03663427 -0.036915611 -0.0005706948 0.00058479066 -0.1579866 0.33244348
219133333333.33 0.44591349 -0.18727742 0.035017423 -0.040113293 -0.00053977181 0.00062770059 -0.13352022 0.33933166
219200000000 0.44069466 -0.22394022 0.030467583 -0.043326817 -0.00049752754 0.00065919134 -0.10518573 0.3437168
219266666666.67 0.42086959 -0.25206241 0.025343854 -0.04471612 -0.00045525181 0.00068762287 -0.078256965 0.34797484
219333333333.33 0.40080592 -0.28081644 0.022364803 -0.04526576 -0.00040944893 0.00072692626 -0.053612292 0.35188258
219400000000 0.3932375 -0.31105798 0.018708959 -0.049861997 -0.0003655015 0.00075376756 -0.024702944 0.35479051
219466666666.67 0.36191487 -0.33715272 0.015918525 -0.047534265 -0.00030775214 0.00077087205 0.0034286827 0.35082233
219533333333.33 0.34210944 -0.36725613 0.011287998 -0.046850175 -0.00027715601 0.00078062166 0.030103073 0.34491411
219600000000 0.32090706 -0.39334375 0.0083801029 -0.047696222 -0.00018884358 0.00080232637 0.055105187 0.33820462
219666666666.67 0.29749426 -0.41751814 0.0049020257 -0.047475666 -0.00015231362 0.00081686891 0.081136212 0.33222616
219733333333.33 0.2684429 -0.43905994 -0.0012240764 -0.048480883 -9.3963259e-05 0.00082229974 0.10885071 0.32277381
219800000000 0.23443706 -0.46010512 -0.0020494743 -0.048960786 -3.7933416e-05 0.00081223197 0.13090204 0.31295666
219866666666.67 0.21344875 -0.47615743 -0.0071878387 -0.046349697 2.4830049e-05 0.00082302396 0.15604246 0.29873765
219933333333.33 0.1757012 -0.49580267 -0.010544114 -0.047366861 8.6909014e-05 0.00081651972 0.17947865 0.2840625
220000000000 0.14378402 -0.50785446 -0.012996249 -0.042815976 0.00012159542 0.00082057773 0.20182538 0.26884803
