!Keysight Technologies,N5222B,MY56022597,A.18.40.03
!Date: Tuesday, March 31, 2026 11:05:40
!Correction: S11(C  2-Port  ) 
!S21(C  2-Port  ) 
!S12(C  2-Port  ) 
!S22(C  2-Port  ) 
!S2P File: Measurements: S11, S21, S12, S22:
# Hz S  RI   R 50
140000000000 -0.1128149 -0.16740651 -1.8180757 0.68463808 -3.6508762e-05 6.2033832e-05 0.012442747 0.20179023
140066666666.67 -0.13606884 -0.15131955 -1.7212408 0.93195504 -2.9263943e-05 4.6095942e-05 0.030900411 0.20073199
140133333333.33 -0.15571529 -0.13360807 -1.6131941 1.1160514 -4.3900309e-05 6.7358902e-05 0.048710346 0.19848061
140200000000 -0.1697129 -0.11090541 -1.486055 1.3026798 -1.7843595e-05 7.8580131e-05 0.067087792 0.19494769
140266666666.67 -0.18435234 -0.090129867 -1.3415189 1.4723059 1.1575637e-05 5.0851475e-05 0.085576765 0.18891376
140333333333.33 -0.19227181 -0.068182573 -1.1626015 1.631436 1.2393379e-05 7.3567884e-05 0.10375458 0.18166095
140400000000 -0.19911969 -0.043045372 -0.98039865 1.7569923 -2.3177799e-06 5.8038589e-05 0.12059791 0.17355756
140466666666.67 -0.20469017 -0.018455472 -0.78357607 1.8622587 3.6074227e-05 7.8220866e-05 0.13740462 0.16390884
140533333333.33 -0.20321472 0.006381534 -0.57842988 1.9506621 2.122186e-05 7.6756609e-05 0.15276471 0.15310481
140600000000 -0.20197515 0.029321086 -0.38095206 2.016103 2.0951527e-05 4.6123594e-05 0.16916099 0.14058642
140666666666.67 -0.19669405 0.052252583 -0.14080054 2.0468731 2.5739666e-05 8.2398103e-05 0.18367173 0.12490065
140733333333.33 -0.19103353 0.073227331 0.08230722 2.0718567 4.3947042e-05 5.0037586e-05 0.19807868 0.10854
140800000000 -0.17895682 0.09677802 0.31370676 2.061856 1.550444e-05 6.1805018e-05 0.20892271 0.088829912
140866666666.67 -0.16956691 0.11665627 0.54292059 2.0232532 4.8823062e-05 4.077638e-05 0.21789533 0.070492201
140933333333.33 -0.15648857 0.13740392 0.76017797 1.9709401 5.1596617e-05 3.0069961e-05 0.22576486 0.051818315
141000000000 -0.13993213 0.15538347 0.97666442 1.8793499 5.7256217e-05 5.3184445e-05 0.23181987 0.031425864
141066666666.67 -0.11849122 0.17328614 1.1785893 1.7674172 5.8393671e-05 3.579288e-05 0.23481821 0.011007736
141133333333.33 -0.10171776 0.18543613 1.3810155 1.6423702 6.3036605e-05 2.8611197e-05 0.23753683 -0.0076947063
141200000000 -0.080674611 0.20032658 1.561062 1.4898806 7.7772667e-05 3.0114306e-05 0.23571241 -0.031361505
141266666666.67 -0.0591745 0.20879656 1.7218274 1.3185465 7.2239083e-05 2.3358789e-05 0.23448643 -0.051177751
141333333333.33 -0.035462931 0.22167099 1.8574502 1.1250681 6.0025304e-05 -9.5943742e-06 0.2286759 -0.072091371
141400000000 -0.01024107 0.21984097 1.9855416 0.93268287 8.016904e-05 1.4366956e-05 0.22409804 -0.090628468
141466666666.67 0.013258822 0.22431743 2.0693102 0.72797155 7.6818091e-05 2.2719723e-06 0.21689244 -0.1088402
141533333333.33 0.036686625 0.228453 2.1594067 0.51809776 4.7645659e-05 -1.4568926e-05 0.20850129 -0.12665533
141600000000 0.062265381 0.22415653 2.2000544 0.28654259 3.8481987e-05 -1.8505696e-05 0.19896273 -0.14502108
141666666666.67 0.089810729 0.21884742 2.2347636 0.057038963 7.5087177e-05 -2.6841779e-05 0.18765712 -0.16126248
141733333333.33 0.11161033 0.21358228 2.2344947 -0.18869019 5.6739918e-05 -3.2642685e-05 0.17416129 -0.17871296
141800000000 0.13587798 0.20355634 2.2139723 -0.42530605 3.778033e-05 -3.1858235e-05 0.15879239 -0.1939165
141866666666.67 0.15671363 0.18945025 2.1761663 -0.66989386 7.4405558e-05 -4.8603928e-05 0.14269674 -0.20863798
141933333333.33 0.18067792 0.17151676 2.0970073 -0.90628099 5.7637757e-05 -4.4591598e-05 0.12373492 -0.21893439
142000000000 0.19838357 0.15563743 1.9950765 -1.1333101 4.7806087e-05 -4.2600284e-05 0.10574231 -0.22967052
142066666666.67 0.21569607 0.13905698 1.8622503 -1.3440238 4.9810362e-05 -4.1425377e-05 0.085029319 -0.23789831
142133333333.33 0.23054811 0.11598846 1.7160753 -1.5467257 4.3603217e-05 -5.40867e-05 0.066927165 -0.24354348
142200000000 0.24577802 0.097837135 1.5642047 -1.7283009 3.8484213e-05 -5.2340685e-05 0.046319522 -0.24860881
142266666666.67 0.25627962 0.075624071 1.3932461 -1.8867933 4.1298466e-05 -6.9082656e-05 0.026306629 -0.25251248
142333333333.33 0.2680333 0.047295682 1.1868615 -2.0395861 4.376805e-06 -5.2709613e-05 0.0055990592 -0.25383332
142400000000 0.27579546 0.021130167 0.97165334 -2.1667829 -2.2663517e-07 -5.7913217e-05 -0.014229983 -0.25403988
142466666666.67 0.2799305 -0.0028726459 0.72836661 -2.2793937 9.5661817e-06 -7.6320161e-05 -0.03661678 -0.25220141
142533333333.33 0.27623475 -0.030968275 0.48701298 -2.3456051 -3.1554823e-06 -6.1759099e-05 -0.057378922 -0.24921113
142600000000 0.28065038 -0.054471739 0.25456882 -2.3977964 -1.5194639e-05 -6.6882145e-05 -0.077408686 -0.24237999
142666666666.67 0.27442959 -0.083437428 -0.01816231 -2.422009 -1.4282949e-05 -5.5592227e-05 -0.097187594 -0.23487295
142733333333.33 0.27131096 -0.10994443 -0.26721132 -2.4192588 -9.1954262e-06 -6.6565553e-05 -0.11495312 -0.2254665
142800000000 0.26170266 -0.13562375 -0.51114458 -2.3957155 -1.1457601e-05 -6.869575e-05 -0.13190269 -0.21499613
142866666666.67 0.24936269 -0.16553769 -0.75023437 -2.3331008 -4.1816311e-05 -8.0533711e-05 -0.14758101 -0.20334513
142933333333.33 0.23728928 -0.18688752 -0.99532217 -2.2703624 -4.4342665e-05 -7.404486e-05 -0.16345593 -0.19032939
143000000000 0.21796468 -0.20997809 -1.2334468 -2.1623428 -3.5126239e-05 -5.475861e-05 -0.17757051 -0.17633085
143066666666.67 0.20327094 -0.23008248 -1.4670047 -2.0409229 -6.5906301e-05 -4.0124516e-05 -0.19061257 -0.16070461
143133333333.33 0.1845403 -0.25163722 -1.6833745 -1.88556 -3.9138376e-05 -5.5848777e-05 -0.2019684 -0.14333732
143200000000 0.16187884 -0.26873794 -1.8734765 -1.7212707 -5.1254268e-05 -4.384762e-05 -0.21176535 -0.12654829
143266666666.67 0.13793781 -0.28248715 -2.0411646 -1.53146 -8.2567334e-05 -2.9379806e-05 -0.22029896 -0.10827287
143333333333.33 0.11419863 -0.29886335 -2.2148671 -1.3245018 -6.8922454e-05 -4.83365e-05 -0.22725055 -0.088848762
143400000000 0.089088283 -0.31000969 -2.3479235 -1.0950586 -8.0481106e-05 -2.6974545e-05 -0.2315373 -0.070243061
143466666666.67 0.059130229 -0.31744176 -2.455097 -0.84887654 -7.0745715e-05 -3.2786877e-05 -0.23447424 -0.050203778
143533333333.33 0.031700768 -0.32527447 -2.5495279 -0.59819275 -8.3928637e-05 -2.1860253e-05 -0.23616724 -0.030774884
143600000000 0.003248319 -0.33245876 -2.6175427 -0.33515012 -7.8133256e-05 -1.557989e-05 -0.23552535 -0.012174144
143666666666.67 -0.025395721 -0.330484 -2.6479445 -0.056129575 -6.3523992e-05 -1.3662309e-05 -0.23326427 0.0074368194
143733333333.33 -0.055516459 -0.33268249 -2.6674824 0.21138355 -0.00010308898 -1.1620559e-06 -0.22954611 0.025923423
143800000000 -0.083197482 -0.32793611 -2.6484585 0.48970944 -8.1669459e-05 1.4804484e-05 -0.22449794 0.044243008
143866666666.67 -0.11199009 -0.31908303 -2.606194 0.75172096 -7.9519901e-05 3.1071737e-05 -0.21804318 0.061788261
143933333333.33 -0.13868348 -0.31249645 -2.5423236 1.0115833 -7.9255755e-05 4.8546044e-05 -0.21012521 0.078876823
144000000000 -0.16344418 -0.29663336 -2.4343519 1.2645748 -8.0767772e-05 2.9955429e-05 -0.20014796 0.094769657
144066666666.67 -0.19200256 -0.28799829 -2.3157856 1.5244359 -6.4574087e-05 4.9084367e-05 -0.18850888 0.11013461
144133333333.33 -0.21504886 -0.26692271 -2.1451049 1.7671779 -8.4930274e-05 5.1599298e-05 -0.17624022 0.12464508
144200000000 -0.23734495 -0.25231168 -1.9876151 1.9923651 -6.763517e-05 6.5199805e-05 -0.16269068 0.13709351
144266666666.67 -0.26130643 -0.23106933 -1.7731494 2.2012191 -7.9286416e-05 7.2578041e-05 -0.14854664 0.14882191
144333333333.33 -0.27899858 -0.20688714 -1.5503447 2.3919325 -5.7710029e-05 7.4798598e-05 -0.13329765 0.15866098
144400000000 -0.29593301 -0.18549195 -1.3158362 2.546695 -6.3525949e-05 7.9031612e-05 -0.11689554 0.1667698
144466666666.67 -0.31024626 -0.16082418 -1.0753648 2.6834888 -4.7945057e-05 8.5604152e-05 -0.10088859 0.17411293
144533333333.33 -0.32376802 -0.13419433 -0.80187249 2.7994556 -4.4414697e-05 8.7294153e-05 -0.083542883 0.17955716
144600000000 -0.33437753 -0.10707261 -0.52375108 2.887001 -1.8027202e-05 9.6279429e-05 -0.066041656 0.18312745
144666666666.67 -0.34297419 -0.074203454 -0.21100366 2.9666128 -3.29865e-06 9.6851873e-05 -0.04806786 0.18621171
144733333333.33 -0.34462208 -0.046824455 0.078650683 2.9717755 -4.4987646e-06 8.8364846e-05 -0.030133262 0.18586147
144800000000 -0.3526535 -0.018245205 0.37390935 2.9809077 -7.1540053e-06 0.00010140584 -0.013227195 0.18493842
144866666666.67 -0.35020781 0.0099307522 0.6939522 2.9523733 1.8417493e-05 0.00010408377 0.0037125051 0.18274255
144933333333.33 -0.34961939 0.042472705 1.0167861 2.8866379 3.0703421e-05 9.9171069e-05 0.020775761 0.17834549
145000000000 -0.34361595 0.071760207 1.2987432 2.7741337 1.6369548e-05 8.6455562e-05 0.036865994 0.17245981
145066666666.67 -0.33772349 0.10030395 1.5801525 2.6569486 4.1083873e-05 0.00010751528 0.052274495 0.16500731
145133333333.33 -0.32725513 0.12809089 1.8593423 2.5102568 5.7109362e-05 0.00010390126 0.067105345 0.15724649
145200000000 -0.31357411 0.15632838 2.1066082 2.3304098 4.947422e-05 9.5936863e-05 0.081083789 0.14716163
145266666666.67 -0.29885444 0.17882854 2.3501151 2.1312206 6.8638677e-05 9.4270232e-05 0.09434399 0.13604979
145333333333.33 -0.28094083 0.20473151 2.5756736 1.8885567 9.5513366e-05 8.3649997e-05 0.1056505 0.12363482
145400000000 -0.26109332 0.22718704 2.772347 1.6463027 8.3973733e-05 8.1845443e-05 0.11609451 0.11064646
145466666666.67 -0.2413229 0.24608968 2.953398 1.3567563 0.0001002493 5.502571e-05 0.12472238 0.096876733
145533333333.33 -0.2181157 0.26869306 3.0883043 1.0655278 0.00012208163 5.364012e-05 0.13206357 0.081983022
145600000000 -0.19490483 0.2854161 3.2169046 0.76234794 0.00012229293 4.6484227e-05 0.13875476 0.066699758
145666666666.67 -0.16792998 0.29847741 3.2888904 0.43723679 0.00010129793 1.6769567e-05 0.14294969 0.051145364
145733333333.33 -0.1418283 0.31493491 3.3402901 0.10984755 0.00012823193 1.5806192e-05 0.14591074 0.035138108
145800000000 -0.11415503 0.31939468 3.3703303 -0.22925746 0.00013871877 -1.105278e-05 0.14817052 0.019925395
145866666666.67 -0.081868574 0.32657441 3.3568621 -0.56195235 0.0001251621 -2.0910386e-05 0.14821148 0.0038887709
145933333333.33 -0.05484347 0.33395571 3.3089333 -0.90219671 0.00013548511 -2.6161324e-05 0.14744806 -0.012497135
146000000000 -0.025028056 0.33439541 3.2310009 -1.2451489 0.00013988224 -2.8336795e-05 0.14531055 -0.027953768
146066666666.67 0.0054853708 0.33065951 3.1046486 -1.5657482 0.00012573811 -5.2429332e-05 0.14044929 -0.043027092
146133333333.33 0.036268502 0.32995152 2.9555426 -1.8816147 0.00011436165 -6.7962392e-05 0.13463502 -0.058375761
146200000000 0.06465783 0.32478553 2.789299 -2.1817734 0.00012286963 -8.222113e-05 0.1277297 -0.072301142
146266666666.67 0.094235063 0.31289965 2.5546417 -2.4581001 0.00011047005 -0.00010543525 0.11992225 -0.085427217
146333333333.33 0.11893401 0.30316153 2.3366756 -2.7189958 9.4141848e-05 -0.00010460242 0.11092286 -0.097858496
146400000000 0.1453124 0.28885132 2.0511975 -2.9634798 6.8992871e-05 -0.00011592216 0.099438831 -0.10982623
146466666666.67 0.1714714 0.27346122 1.7892547 -3.1623864 5.9890623e-05 -0.00010795784 0.089004688 -0.12040108
146533333333.33 0.19354956 0.2542221 1.4680895 -3.3675604 6.3510612e-05 -0.00012230723 0.077020347 -0.13046992
146600000000 0.21563245 0.23547597 1.1365061 -3.5339165 5.6894063e-05 -0.0001333094 0.062970586 -0.13904206
146666666666.67 0.23703803 0.21165574 0.79067069 -3.6484108 3.2100281e-05 -0.00010659967 0.049490258 -0.14555392
146733333333.33 0.25205472 0.18897471 0.4097752 -3.7321749 1.6930102e-05 -0.00013932293 0.034706771 -0.15170914
146800000000 0.26877961 0.16263406 0.039521694 -3.7893462 2.1262826e-05 -0.00012310513 0.01996015 -0.15642577
146866666666.67 0.28076649 0.13477632 -0.32935753 -3.792376 -1.132478e-05 -0.00014421291 0.0048629511 -0.15943047
146933333333.33 0.29022822 0.1071853 -0.70610321 -3.7676754 -2.6642112e-05 -0.00016463707 -0.010424342 -0.16145617
147000000000 0.29861948 0.076100543 -1.099172 -3.697418 -4.3619537e-05 -0.00015870832 -0.026188456 -0.16160777
147066666666.67 0.30626783 0.048923604 -1.4439611 -3.6078234 -5.0730792e-05 -0.00013687045 -0.040902779 -0.16052333
147133333333.33 0.30825776 0.017886929 -1.8161011 -3.4725609 -6.3981228e-05 -0.00011237575 -0.056016989 -0.15878175
147200000000 0.30354422 -0.012789719 -2.1838677 -3.2939456 -7.4624826e-05 -0.00013954437 -0.071620688 -0.15555112
147266666666.67 0.30375957 -0.041901965 -2.4981549 -3.0841072 -0.0001056964 -0.00011547637 -0.085902944 -0.15044475
147333333333.33 0.29402667 -0.074882612 -2.8236985 -2.8349724 -9.8741242e-05 -0.00011232251 -0.10051709 -0.14522147
147400000000 0.28859997 -0.10346074 -3.1063218 -2.5539021 -0.00012335787 -9.6307078e-05 -0.1137334 -0.13735202
147466666666.67 0.27345371 -0.12799618 -3.3571408 -2.2775173 -0.00011333343 -7.1996095e-05 -0.1271825 -0.12971684
147533333333.33 0.25849181 -0.15757424 -3.5896568 -1.933532 -0.00012817068 -4.7941812e-05 -0.13892861 -0.12002714
147600000000 0.24289779 -0.1824273 -3.7943141 -1.5690838 -0.00013401492 -3.4741424e-05 -0.15066481 -0.10885002
147666666666.67 0.22405308 -0.2046138 -3.9461906 -1.2117306 -0.00012915084 -4.2492495e-05 -0.16101757 -0.097731568
147733333333.33 0.20239902 -0.2298397 -4.0860372 -0.8105557 -0.00017158128 -1.0395648e-05 -0.17040373 -0.085374564
147800000000 0.17863095 -0.24580047 -4.1481013 -0.42100424 -0.00015541622 -3.78392e-06 -0.17855693 -0.072121359
147866666666.67 0.15465559 -0.2666353 -4.2113647 -0.0013370514 -0.00011800996 3.1220177e-05 -0.18603607 -0.058433875
147933333333.33 0.12575302 -0.2768259 -4.2094727 0.40981722 -0.00014686477 8.6312612e-06 -0.19238827 -0.043907844
148000000000 0.10005317 -0.28950292 -4.1726999 0.80871654 -0.00014078434 5.8320002e-05 -0.19635758 -0.029318757
148066666666.67 0.069798104 -0.30070823 -4.1044998 1.2313886 -0.00014465005 5.7782214e-05 -0.20077692 -0.014148787
148133333333.33 0.039170533 -0.30708581 -3.9893165 1.6304824 -0.00013061572 6.8043657e-05 -0.20386694 0.0011050403
148200000000 0.0085470602 -0.31413558 -3.8242378 2.0409615 -0.00014849789 8.8534056e-05 -0.20512876 0.016661417
148266666666.67 -0.023282632 -0.3125844 -3.6117702 2.4298544 -0.00012415589 0.0001159674 -0.20491478 0.032416016
148333333333.33 -0.054251797 -0.31230348 -3.3848994 2.7881374 -0.00012450217 0.00011249319 -0.2043611 0.047789447
148400000000 -0.086354457 -0.30926144 -3.1157355 3.1217294 -0.00011773418 0.00012270428 -0.20272134 0.063362911
148466666666.67 -0.11409405 -0.30409804 -2.8118258 3.4384608 -7.6450204e-05 0.00013893668 -0.19908516 0.078791954
148533333333.33 -0.14454708 -0.29262689 -2.4456046 3.7185078 -7.5413322e-05 0.00014181371 -0.19395001 0.094605178
148600000000 -0.17500459 -0.27685654 -2.0778863 3.9711871 -5.041682e-05 0.00014744238 -0.18816552 0.10923044
148666666666.67 -0.20010561 -0.26348734 -1.7140791 4.1616516 -2.7996983e-05 0.0001572273 -0.18103026 0.12226997
148733333333.33 -0.22764143 -0.24486381 -1.2836682 4.3270454 -3.6117224e-05 0.00015682488 -0.17265184 0.13588408
148800000000 -0.25162265 -0.22463204 -0.86011875 4.4673767 -1.2913668e-05 0.00015947342 -0.16320662 0.14892432
148866666666.67 -0.27433294 -0.20274614 -0.44381285 4.5571752 6.8218642e-06 0.000183275 -0.15346503 0.16063762
148933333333.33 -0.29438013 -0.18008773 0.007833004 4.5994282 2.465595e-05 0.00015800534 -0.14244458 0.17132735
149000000000 -0.31452283 -0.15365916 0.47522616 4.5919971 3.4179018e-05 0.00016871015 -0.13095513 0.18173823
149066666666.67 -0.3276062 -0.12665084 0.90100574 4.5702686 6.6252236e-05 0.0001530014 -0.11862659 0.19040047
149133333333.33 -0.34295055 -0.096859291 1.3385973 4.5032492 7.3957126e-05 0.00014343247 -0.10550679 0.19936624
149200000000 -0.3509717 -0.068106242 1.788651 4.3592281 7.7203498e-05 0.00014075084 -0.091400549 0.20626922
149266666666.67 -0.36123106 -0.036230132 2.2080536 4.1624336 0.00010324 0.00013834584 -0.077013031 0.21256998
149333333333.33 -0.36557674 -0.006085664 2.6053076 3.9656138 0.00010668156 0.00014083041 -0.063143693 0.21771097
149400000000 -0.36917666 0.028314561 3.0286312 3.7100387 0.00012985941 9.3632625e-05 -0.04789193 0.22199965
149466666666.67 -0.36965549 0.060895711 3.373404 3.4190781 0.00013654547 0.00010888148 -0.033078112 0.22508237
149533333333.33 -0.36902335 0.093337193 3.6953764 3.1072774 0.00012451813 5.7468882e-05 -0.017317403 0.22769572
149600000000 -0.35852784 0.12509668 4.0074048 2.7281301 0.00015885623 8.5598142e-05 -0.001145564 0.22782113
149666666666.67 -0.35031885 0.15450059 4.2745504 2.3474307 0.00015157566 4.3266442e-05 0.014149122 0.22684996
149733333333.33 -0.33945689 0.18667981 4.50559 1.930586 0.00013766385 1.6200862e-05 0.029192396 0.22569689
149800000000 -0.33180439 0.21161085 4.7001243 1.5185776 0.00015379328 2.7815244e-05 0.046863213 0.22332755
149866666666.67 -0.31140849 0.24459928 4.8415194 1.0715127 0.00017547942 -1.0464981e-05 0.058404893 0.21990727
149933333333.33 -0.29302919 0.2720803 4.9411244 0.61763453 0.00016133224 -6.0304228e-06 0.07271032 0.21550366
150000000000 -0.27116221 0.29841799 5.0010533 0.12291253 0.00017253615 -8.6586078e-06 0.086302534 0.20931405
150066666666.67 -0.24864084 0.3209902 5.025188 -0.35008669 0.00016208336 -3.9275747e-05 0.099778987 0.20274326
150133333333.33 -0.22399919 0.34322447 5.0007262 -0.84526849 0.00015363097 -6.0578986e-05 0.11227429 0.1952658
150200000000 -0.19866045 0.35882419 4.9238267 -1.2970743 0.00013087348 -7.4232885e-05 0.12409714 0.18701148
150266666666.67 -0.17011718 0.37578976 4.813921 -1.7671272 0.00014624605 -8.9504007e-05 0.13569944 0.17777324
150333333333.33 -0.14002784 0.39295149 4.6378698 -2.2494316 0.00011298362 -9.6499738e-05 0.14719239 0.16795823
150400000000 -0.11002229 0.4065446 4.4385586 -2.7068651 9.3064482e-05 -9.5356772e-05 0.15721147 0.15682691
150466666666.67 -0.079857171 0.41558951 4.1771092 -3.115907 0.00010570265 -0.00010954982 0.16572303 0.14587909
150533333333.33 -0.047326639 0.4234125 3.8807602 -3.5263362 7.8582263e-05 -0.00010835109 0.17381044 0.13422211
150600000000 -0.012512699 0.42426017 3.5354888 -3.9014676 6.4099353e-05 -0.00012194135 0.18158731 0.12137683
150666666666.67 0.019866191 0.42956746 3.1610844 -4.2559862 6.1106774e-05 -0.00013590099 0.18752018 0.10886969
150733333333.33 0.052258864 0.4291411 2.7714186 -4.5609407 6.0480601e-05 -0.00013638665 0.19330364 0.096261196
150800000000 0.083391316 0.42430592 2.3504398 -4.8142414 2.0582003e-05 -0.00014673662 0.19777954 0.082347095
150866666666.67 0.12044743 0.42139053 1.8756889 -5.0794115 -7.3740375e-07 -0.00014112264 0.20177409 0.068894982
150933333333.33 0.15049779 0.4079583 1.3847213 -5.2331352 2.4146164e-05 -0.0001341594 0.20367467 0.055250671
151000000000 0.18553796 0.40030518 0.88744199 -5.400063 3.647976e-06 -0.00014980396 0.20514083 0.041479088
151066666666.67 0.21493205 0.38303491 0.36764169 -5.4861126 -3.4867095e-05 -0.00015199403 0.20614117 0.027992018
151133333333.33 0.24200025 0.3690064 -0.12351796 -5.5415521 -2.3376013e-05 -0.00013835538 0.20584701 0.014581794
151200000000 0.27024829 0.35115385 -0.66594982 -5.5434065 -5.8139543e-05 -0.00014646741 0.20465335 0.0011578128
151266666666.67 0.29732406 0.33072358 -1.198639 -5.491456 -3.791734e-05 -0.00013344359 0.20263636 -0.012753204
151333333333.33 0.32139307 0.30909961 -1.7076418 -5.3940477 -6.572064e-05 -0.00012292032 0.19947095 -0.025877401
151400000000 0.34754303 0.28403091 -2.241992 -5.2509694 -6.4876403e-05 -0.00012142283 0.19589965 -0.038399708
151466666666.67 0.36562359 0.25668862 -2.7484386 -5.0343609 -9.5742202e-05 -0.00012528812 0.19094229 -0.05058866
151533333333.33 0.38625744 0.22594562 -3.2609699 -4.7704582 -0.00010923986 -9.749188e-05 0.1855025 -0.062444404
151600000000 0.4009735 0.19796272 -3.7183399 -4.4747977 -0.00010729659 -5.1951632e-05 0.17956845 -0.073196873
151666666666.67 0.41918537 0.17058909 -4.1554337 -4.1612735 -0.00010680253 -7.9647478e-05 0.17239261 -0.083590612
151733333333.33 0.42709702 0.14024588 -4.5675478 -3.7668114 -9.3808121e-05 -5.7885329e-05 0.16498807 -0.09415476
151800000000 0.43451077 0.10687046 -4.9192142 -3.3499901 -0.00011304026 -3.7224694e-05 0.15741643 -0.10263066
151866666666.67 0.4446826 0.077466339 -5.2654681 -2.8863149 -0.00013072176 -1.974031e-05 0.14818682 -0.11145164
151933333333.33 0.44984987 0.038218804 -5.5628815 -2.3637643 -0.00013200671 -2.4379835e-05 0.13950051 -0.1190221
152000000000 0.44995525 0.006370008 -5.7948804 -1.8625134 -0.00010450523 -2.0123303e-05 0.1296891 -0.12638773
152066666666.67 0.44892621 -0.028654814 -6.0077958 -1.3064525 -0.00010168924 1.8073308e-05 0.12009257 -0.13271508
152133333333.33 0.44682586 -0.063075639 -6.1312833 -0.73103732 -0.00011065014 3.59768e-06 0.10960947 -0.13819805
152200000000 0.43693808 -0.094067171 -6.2200117 -0.16614509 -0.00011839176 2.7881997e-05 0.099286444 -0.14330746
152266666666.67 0.42946669 -0.12651308 -6.2434397 0.4420656 -0.00010106136 5.2768348e-05 0.087836765 -0.14726382
152333333333.33 0.41759717 -0.15695874 -6.2131619 1.0072346 -0.0001153632 3.7638652e-05 0.077122182 -0.15038791
152400000000 0.40222889 -0.18753558 -6.1306314 1.6293123 -8.90257e-05 6.3418956e-05 0.066182896 -0.15335935
152466666666.67 0.38467798 -0.2194754 -5.9925432 2.2035754 -9.5433032e-05 7.5733835e-05 0.055242013 -0.15495542
152533333333.33 0.36700606 -0.24493019 -5.7768331 2.8292623 -6.4152402e-05 5.7507605e-05 0.044721469 -0.15547313
152600000000 0.34838721 -0.26945964 -5.5451441 3.3742065 -7.3824864e-05 6.7415807e-05 0.033477951 -0.15577254
152666666666.67 0.3221975 -0.2960223 -5.2131934 3.9256594 -6.1734267e-05 8.9363515e-05 0.023267314 -0.15463415
152733333333.33 0.2992143 -0.32059959 -4.8682809 4.4543791 -4.2314015e-05 9.3944735e-05 0.012593832 -0.15350352
152800000000 0.27536801 -0.34069407 -4.4654942 4.9388933 -5.5352608e-05 8.7106258e-05 0.0025239121 -0.15179659
152866666666.67 0.24402033 -0.36305395 -4.0042639 5.3709726 -4.360771e-05 7.3596086e-05 -0.0068158582 -0.14868371
152933333333.33 0.21826109 -0.37767911 -3.477869 5.7854829 -3.3280739e-05 9.2425318e-05 -0.016189113 -0.14560413
153000000000 0.18714337 -0.39053211 -2.9624369 6.1234207 -4.0056999e-05 7.3652649e-05 -0.024730397 -0.14163262
153066666666.67 0.15709943 -0.3979165 -2.3435493 6.4199786 2.0976906e-05 0.00010349524 -0.033488609 -0.13776375
153133333333.33 0.12509578 -0.40801883 -1.7500076 6.6427794 4.119298e-06 9.0423171e-05 -0.040597804 -0.13273251
153200000000 0.091983527 -0.41594946 -1.1076274 6.8332329 -1.8990562e-05 7.9430465e-05 -0.048363358 -0.12742943
153266666666.67 0.058899626 -0.42199975 -0.44635057 6.987195 2.9780524e-05 5.209805e-05 -0.055906463 -0.12201931
153333333333.33 0.027778639 -0.42111704 0.21673784 7.0284376 2.4459365e-05 8.7246241e-05 -0.062471937 -0.11547599
153400000000 -0.0063717514 -0.41940424 0.8771168 7.0223322 4.7710309e-06 8.7399218e-05 -0.068653241 -0.10924912
153466666666.67 -0.040803924 -0.41883355 1.593853 6.9623117 2.0091036e-05 7.7070697e-05 -0.07384187 -0.10205583
153533333333.33 -0.06961336 -0.40755668 2.2486153 6.8164582 2.1632743e-05 6.5733024e-05 -0.078953467 -0.095084481
153600000000 -0.1024479 -0.39809605 2.9117546 6.6229849 2.5123885e-05 8.3835199e-05 -0.083499022 -0.087238699
153666666666.67 -0.13472481 -0.38715819 3.5831873 6.3650131 3.6064554e-05 7.5125703e-05 -0.087199114 -0.079710647
153733333333.33 -0.16629596 -0.37449235 4.2016664 6.0573487 3.8775095e-05 6.6249151e-05 -0.090226404 -0.072417855
153800000000 -0.18884456 -0.36009607 4.7926521 5.6586876 1.9161969e-05 6.0046867e-05 -0.092489466 -0.064408235
153866666666.67 -0.21765092 -0.33816612 5.3898683 5.1976628 2.7410073e-05 4.0695395e-05 -0.094845638 -0.056970656
153933333333.33 -0.24347395 -0.31668222 5.900949 4.6627517 4.4272878e-05 4.7973655e-05 -0.096113116 -0.049371906
154000000000 -0.26635635 -0.29530469 6.4166837 4.1008258 2.6500116e-05 5.0347066e-05 -0.097160682 -0.0418633
154066666666.67 -0.28404054 -0.27149838 6.7839298 3.4898214 3.0063115e-05 4.3175551e-05 -0.096830375 -0.034611531
154133333333.33 -0.30655983 -0.24557289 7.1651249 2.8675768 3.7845239e-05 3.6290381e-05 -0.097143479 -0.027306557
154200000000 -0.32109937 -0.2207717 7.4343071 2.2106705 6.4063301e-05 3.993067e-05 -0.096291751 -0.019951299
154266666666.67 -0.33633739 -0.19349296 7.6743388 1.486631 2.911811e-05 4.0556177e-05 -0.095514998 -0.013099824
154333333333.33 -0.34890652 -0.16122296 7.8327894 0.72849464 5.7464571e-05 3.0870429e-05 -0.093793944 -0.0062491521
154400000000 -0.35991892 -0.13263519 7.91611 -0.033079624 2.5109233e-05 7.5613125e-06 -0.091961004 0.00039223954
154466666666.67 -0.36660373 -0.10253167 7.9543333 -0.74139404 4.0749983e-05 7.2989919e-06 -0.089638315 0.006654907
154533333333.33 -0.37050432 -0.068986744 7.8592958 -1.6005104 3.3663331e-05 1.8443661e-05 -0.086362503 0.012804586
154600000000 -0.37073946 -0.038777247 7.6852789 -2.3253303 5.3735108e-05 2.3713932e-05 -0.083042063 0.018347874
154666666666.67 -0.3732684 -0.007104259 7.5353436 -3.0767829 5.1501131e-05 3.1014333e-05 -0.07960818 0.023992389
154733333333.33 -0.36880523 0.024258927 7.2219391 -3.8196156 5.5122706e-05 1.477775e-05 -0.075162709 0.02900758
154800000000 -0.36466002 0.054547079 6.8715458 -4.5485954 3.6329089e-05 1.7214028e-05 -0.07082057 0.033340018
154866666666.67 -0.35688412 0.08284539 6.4439821 -5.1801929 6.0210419e-05 2.2632319e-05 -0.066384882 0.038142655
154933333333.33 -0.34552628 0.11351801 5.9435511 -5.8504934 5.1244235e-05 2.1843405e-05 -0.06143102 0.04183596
155000000000 -0.3318134 0.14098033 5.3993921 -6.4367065 5.634634e-05 1.0189166e-05 -0.056541428 0.045025699
155066666666.67 -0.31846377 0.16705583 4.8060269 -6.9662209 5.6778859e-05 3.3159889e-05 -0.051077619 0.047955703
155133333333.33 -0.29993778 0.18953565 4.1336412 -7.4252706 6.6448003e-05 3.5631001e-06 -0.046048552 0.050482962
155200000000 -0.27915201 0.21734188 3.3845372 -7.8710375 7.6563461e-05 2.778168e-06 -0.040630341 0.052707098
155266666666.67 -0.256603 0.23488849 2.645853 -8.1821041 6.0333568e-05 -2.0200605e-06 -0.035307921 0.054397106
155333333333.33 -0.23704585 0.2559416 1.8484483 -8.4616604 6.1914223e-05 -9.8377059e-06 -0.029760912 0.05584348
155400000000 -0.21091869 0.27448952 1.0101454 -8.6798677 6.9359485e-05 4.686628e-06 -0.024339244 0.0570032
155466666666.67 -0.18836951 0.28967422 0.2293427 -8.7619286 7.6602249e-05 -1.7191549e-05 -0.018869534 0.057695918
155533333333.33 -0.16163298 0.30231926 -0.62864733 -8.8154144 7.335611e-05 -2.1830809e-05 -0.013727944 0.058141358
155600000000 -0.1340265 0.31558499 -1.5096295 -8.7619534 8.2597464e-05 -1.5928599e-05 -0.0079810927 0.058175936
155666666666.67 -0.10577704 0.32483596 -2.3578966 -8.6195202 7.9676203e-05 -3.1303687e-05 -0.0025709607 0.05788672
155733333333.33 -0.075707853 0.33029416 -3.2203274 -8.4191885 7.8077748e-05 -3.2936092e-05 0.0027039703 0.057150085
155800000000 -0.046866648 0.3350752 -4.0551782 -8.0789957 7.2373499e-05 -2.1345993e-05 0.0080338763 0.055700295
155866666666.67 -0.016539305 0.33816034 -4.8463273 -7.7266674 9.2430259e-05 -4.1072963e-05 0.013420958 0.054508869
155933333333.33 0.010440797 0.33503908 -5.575067 -7.2809458 7.6145952e-05 -4.2532673e-05 0.018462755 0.052572999
156000000000 0.042237669 0.33180252 -6.3087606 -6.7141247 7.9734687e-05 -5.218638e-05 0.023307644 0.049781635
156066666666.67 0.070103511 0.3259078 -6.925838 -6.1181593 9.7405777e-05 -7.7470206e-05 0.02799741 0.047173783
156133333333.33 0.096411593 0.31704089 -7.5751252 -5.4240513 8.5417596e-05 -9.5085255e-05 0.032242373 0.043823782
156200000000 0.12193903 0.30671209 -8.1205769 -4.7402787 7.9328907e-05 -0.00010458859 0.036192052 0.040258836
156266666666.67 0.14889428 0.29526979 -8.5766125 -3.935833 6.7586072e-05 -9.8299497e-05 0.039688613 0.036904082
156333333333.33 0.17423749 0.27954501 -8.9709902 -3.041188 6.0400234e-05 -9.180115e-05 0.043273371 0.033119343
156400000000 0.19737551 0.2615284 -9.2774029 -2.1952105 3.8291011e-05 -0.00011525669 0.046345863 0.028878894
156466666666.67 0.21824715 0.2435417 -9.5074768 -1.3507941 5.0099377e-05 -9.8869954e-05 0.049252484 0.024632379
156533333333.33 0.23823991 0.22324529 -9.642909 -0.41329432 4.2575448e-05 -0.00012436905 0.051928408 0.020060923
156600000000 0.25537312 0.19936237 -9.6788044 0.5505991 3.4287608e-05 -0.00013160179 0.054286081 0.015468534
156666666666.67 0.27240092 0.17755735 -9.6089754 1.4952987 2.1700824e-05 -0.00012805761 0.05643034 0.010806079
156733333333.33 0.28647071 0.15415901 -9.4802933 2.4305921 8.9376699e-06 -0.00015142141 0.058246203 0.0058181286
156800000000 0.29662907 0.12831014 -9.2317095 3.362812 3.9800543e-06 -0.00014172886 0.059985075 0.0007243501
156866666666.67 0.30833861 0.1040571 -8.8947258 4.2493043 -2.7240367e-05 -0.0001303337 0.061046407 -0.004478829
156933333333.33 0.31629097 0.076270945 -8.4842501 5.1569715 -4.0221217e-05 -0.00012540941 0.061921276 -0.0096467584
157000000000 0.32066563 0.048615918 -8.0210371 5.8940048 -3.9539871e-05 -0.00014186325 0.062515981 -0.014846032
157066666666.67 0.32447109 0.020636499 -7.4415088 6.7096801 -6.9997979e-05 -0.00013574542 0.062518463 -0.020828137
157133333333.33 0.32607904 -0.0069465265 -6.7833281 7.4481931 -7.2286726e-05 -0.00014252275 0.061978601 -0.026362324
157200000000 0.32265678 -0.032936342 -6.0291886 8.095335 -7.3614181e-05 -0.00013397001 0.061173551 -0.032143511
157266666666.67 0.31885895 -0.060362071 -5.2632833 8.6552906 -0.00010302986 -0.00010891452 0.05986999 -0.0377279
157333333333.33 0.31260434 -0.086668938 -4.4585099 9.1598015 -0.00011614089 -0.00010810785 0.058052175 -0.04322819
157400000000 0.3038078 -0.11331732 -3.51337 9.576149 -0.00013114672 -0.00010603743 0.05614442 -0.048452877
157466666666.67 0.29253939 -0.13884711 -2.5914583 9.9285316 -0.00015668412 -9.8312506e-05 0.053819418 -0.053465761
157533333333.33 0.27930701 -0.16174495 -1.6272082 10.169399 -0.0001551563 -6.5491935e-05 0.051081985 -0.058470409
157600000000 0.26472414 -0.18435159 -0.60333395 10.30582 -0.00016790129 -7.6686716e-05 0.048017848 -0.06335292
157666666666.67 0.25032175 -0.20488331 0.39212376 10.369436 -0.00018125253 -5.4059674e-05 0.04488064 -0.067944884
157733333333.33 0.23285899 -0.22484656 1.3831866 10.302793 -0.00017601138 -5.0687864e-05 0.040884603 -0.072364084
157800000000 0.21369396 -0.24235314 2.3686965 10.162004 -0.00018095309 -2.8329901e-05 0.036628395 -0.076740503
157866666666.67 0.19497001 -0.26058114 3.3124931 9.9344692 -0.00019210066 4.097461e-06 0.032459568 -0.080611147
157933333333.33 0.17224723 -0.27306199 4.2557106 9.6174984 -0.00021580661 2.8175215e-05 0.02772182 -0.08470352
158000000000 0.14955986 -0.28771299 5.2187877 9.1844063 -0.00018731065 7.4478412e-06 0.022889035 -0.088431269
158066666666.67 0.1278614 -0.29839152 6.0625334 8.6747828 -0.00020286145 4.4822227e-05 0.017646082 -0.091688126
158133333333.33 0.10257466 -0.30759126 6.9005775 8.0788069 -0.00019765443 7.7852405e-05 0.011501595 -0.094906583
158200000000 0.07815408 -0.31367984 7.6780543 7.3915696 -0.00020431992 9.2519374e-05 0.0053617964 -0.097559631
158266666666.67 0.052477308 -0.31898609 8.3829746 6.6363354 -0.00019576674 0.00011805129 -0.0010911636 -0.10012051
158333333333.33 0.027028382 -0.324487 9.0306396 5.8498373 -0.00019051861 0.00013042473 -0.0074764527 -0.10189514
158400000000 -0.00026500039 -0.32635865 9.5600309 4.9250793 -0.00017423648 0.00015116658 -0.013966398 -0.10333475
158466666666.67 -0.022729948 -0.32579339 10.026493 4.0682588 -0.00015351562 0.00016494194 -0.021086905 -0.1043509
158533333333.33 -0.047906786 -0.32160446 10.380122 3.1021109 -0.00013839485 0.00016924669 -0.028223356 -0.10494067
158600000000 -0.072675824 -0.31742677 10.698671 2.0842037 -0.00012435712 0.00017453404 -0.035080314 -0.10493439
158666666666.67 -0.098083116 -0.31018645 10.855535 1.0592432 -9.4742718e-05 0.00021462954 -0.042235713 -0.1047212
158733333333.33 -0.12027364 -0.30245489 10.954784 0.0091879964 -0.00011148187 0.00023051824 -0.048980515 -0.10373756
158800000000 -0.14210115 -0.28994387 10.954552 -1.0604725 -7.2537601e-05 0.00024182518 -0.05629912 -0.10265347
158866666666.67 -0.16542174 -0.27911767 10.839687 -2.0446234 -4.2359163e-05 0.00025486972 -0.063257135 -0.10048619
158933333333.33 -0.18487586 -0.26641628 10.640386 -3.103982 -4.0079143e-05 0.00026081302 -0.070166893 -0.098177686
159000000000 -0.20372546 -0.25176573 10.308279 -4.1517735 8.5755528e-06 0.0002347143 -0.077319972 -0.095199026
159066666666.67 -0.2209141 -0.2355147 9.9124794 -5.1475377 1.6102007e-05 0.00023433943 -0.083937332 -0.092114195
159133333333.33 -0.23940867 -0.21890098 9.4434977 -6.0168405 3.7116417e-05 0.00025562244 -0.090544306 -0.088248007
159200000000 -0.25258875 -0.20179605 8.883934 -6.9039903 7.544153e-05 0.00023443253 -0.097152509 -0.083557628
159266666666.67 -0.26462114 -0.18151847 8.1538982 -7.7342148 6.4781234e-05 0.00025515442 -0.10320364 -0.078406326
159333333333.33 -0.27868286 -0.16128048 7.4002047 -8.5154209 0.00011380366 0.00020298958 -0.10927512 -0.073405161
159400000000 -0.29012355 -0.14054011 6.5902147 -9.1850147 0.00014773998 0.00022101852 -0.11482765 -0.067520246
159466666666.67 -0.29891485 -0.11948634 5.7366238 -9.8204117 0.00013546587 0.00017263409 -0.12014572 -0.061149791
159533333333.33 -0.3048377 -0.095197208 4.8024387 -10.306719 0.00017412391 0.00019982671 -0.12502974 -0.054247674
159600000000 -0.31090549 -0.074510917 3.832834 -10.768403 0.00015985873 0.00017913198 -0.12957872 -0.047130965
159666666666.67 -0.31417498 -0.050960593 2.7557249 -11.084963 0.00020599745 0.00015251008 -0.13316068 -0.03977216
159733333333.33 -0.31756559 -0.024827883 1.6945934 -11.36988 0.00021281463 0.00011514053 -0.13688979 -0.031318065
159800000000 -0.31721595 -0.0029812902 0.61749959 -11.491989 0.00021221179 0.00010173253 -0.13968273 -0.023077667
159866666666.67 -0.31680891 0.017663464 -0.43224716 -11.540205 0.00026814404 9.5183517e-05 -0.14200351 -0.015249111
159933333333.33 -0.31235105 0.041481458 -1.5657475 -11.464904 0.00024617399 4.3154068e-05 -0.14381918 -0.0068243127
160000000000 -0.30792329 0.062465034 -2.5926633 -11.336071 0.0002608283 3.4506204e-05 -0.1447843 0.0017358176
160066666666.67 -0.3015801 0.085881606 -3.6760647 -11.04822 0.00027596235 1.8426843e-05 -0.14551316 0.010716286
160133333333.33 -0.29445758 0.10668199 -4.7365646 -10.713903 0.00023956336 1.4417215e-06 -0.14565319 0.019285385
160200000000 -0.28505462 0.12645358 -5.7867026 -10.241619 0.00025577698 -4.0723266e-05 -0.14499715 0.028560255
160266666666.67 -0.27449223 0.14539532 -6.7181778 -9.6719456 0.00023877749 -6.0587532e-05 -0.14375836 0.037039645
160333333333.33 -0.26164183 0.16339561 -7.6314659 -9.0227699 0.00023956907 -8.5104766e-05 -0.14200507 0.046222661
160400000000 -0.24898899 0.18081066 -8.4718914 -8.3268204 0.00021187347 -9.2581147e-05 -0.13978991 0.054347616
160466666666.67 -0.2331537 0.19693711 -9.2626953 -7.5208325 0.00022553833 -0.00013988333 -0.13678774 0.063020885
160533333333.33 -0.21907927 0.21108884 -9.9492111 -6.6124563 0.00018946361 -0.00014453915 -0.13295817 0.071650498
160600000000 -0.20340928 0.22350144 -10.543237 -5.7003508 0.00019047143 -0.00017125151 -0.12869091 0.079862192
160666666666.67 -0.18326822 0.23878756 -11.079007 -4.6936631 0.00019086602 -0.00016353901 -0.1233127 0.087798193
160733333333.33 -0.16627999 0.24955413 -11.519115 -3.6752241 0.00016658961 -0.00019050977 -0.11839374 0.094959959
160800000000 -0.1464249 0.25779751 -11.845495 -2.5429466 0.00014759575 -0.00019129424 -0.1121204 0.10208008
160866666666.67 -0.12701687 0.2651242 -12.067646 -1.4363089 0.00011976415 -0.00022618496 -0.1055907 0.10893998
160933333333.33 -0.10647349 0.274223 -12.195642 -0.22640732 0.00011006626 -0.00022890142 -0.09838029 0.11526592
161000000000 -0.086277649 0.27804273 -12.201572 0.89758825 8.5089319e-05 -0.00022425514 -0.091302648 0.12114584
161066666666.67 -0.065412216 0.28134108 -12.100792 2.042459 6.3717453e-05 -0.00023171282 -0.083353318 0.12632777
161133333333.33 -0.044677548 0.2812205 -11.899184 3.1837358 5.2138032e-05 -0.00023841702 -0.074944161 0.13106206
161200000000 -0.024405383 0.28418761 -11.62359 4.3052087 3.7937007e-05 -0.00025114865 -0.066460401 0.1353422
161266666666.67 -0.0035410225 0.28201097 -11.167263 5.403223 -5.3139956e-06 -0.00022277914 -0.057767838 0.13919468
161333333333.33 0.016182378 0.2791881 -10.663184 6.4765129 -2.0945023e-05 -0.00024771123 -0.048836 0.14207448
161400000000 0.037242025 0.27585462 -10.050682 7.4497299 -4.117961e-05 -0.00022880602 -0.039537799 0.14429863
161466666666.67 0.05530069 0.26948652 -9.313508 8.3927689 -6.3628839e-05 -0.0001953381 -0.030388512 0.14616157
161533333333.33 0.07150571 0.26288036 -8.5340137 9.2121334 -8.8738961e-05 -0.00022562391 -0.020375326 0.14739835
161600000000 0.092846423 0.25325945 -7.6345448 10.07536 -9.9383884e-05 -0.00020715361 -0.011318889 0.14797497
161666666666.67 0.1081228 0.24461254 -6.666975 10.793476 -0.00011939691 -0.0001943268 -0.0015869886 0.14761288
161733333333.33 0.12414319 0.23202606 -5.6504622 11.363914 -0.00014420797 -0.00018862648 0.007800933 0.14679499
161800000000 0.13879582 0.22123221 -4.5085325 11.888923 -0.00013778276 -0.0001738093 0.017406821 0.14492005
161866666666.67 0.15591066 0.20867854 -3.3633492 12.305878 -0.00017145465 -0.00014720348 0.02653286 0.1426252
161933333333.33 0.16676964 0.19436741 -2.1903894 12.594088 -0.00016255073 -0.00013197088 0.034928538 0.13995321
162000000000 0.17859988 0.18282521 -1.0328398 12.823233 -0.00018548133 -0.00013390434 0.043856967 0.13680527
162066666666.67 0.1885905 0.16700855 0.19714689 12.856928 -0.00019348848 -0.00011362498 0.052284282 0.13264348
162133333333.33 0.19924071 0.14984722 1.4197665 12.867648 -0.00019463725 -0.00010467716 0.060512014 0.12791631
162200000000 0.2067695 0.13462883 2.5888159 12.665087 -0.0001774461 -7.607897e-05 0.068320602 0.12264909
162266666666.67 0.21276656 0.11638605 3.8362274 12.434599 -0.00020282051 -5.2072843e-05 0.075362653 0.1175292
162333333333.33 0.21805924 0.098491043 4.9760556 12.082902 -0.00020440953 -1.9975574e-05 0.082626089 0.11160889
162400000000 0.22095671 0.081199177 6.1221719 11.60386 -0.00022502869 1.8188803e-07 0.089663565 0.10495744
162466666666.67 0.22434074 0.06169438 7.2562985 10.955164 -0.0002053756 -1.306762e-07 0.096221998 0.097470209
162533333333.33 0.22436342 0.044831909 8.2603769 10.211928 -0.00020267957 -1.0546093e-05 0.10167664 0.089971654
162600000000 0.22491506 0.029092178 9.2290621 9.4637661 -0.00020331633 6.4612133e-05 0.1068547 0.082596183
162666666666.67 0.22487736 0.0098337457 10.136529 8.5915146 -0.00017838451 3.7096881e-05 0.11135574 0.074590847
162733333333.33 0.22151494 -0.0064102784 10.895881 7.5779295 -0.00018357628 6.9676433e-05 0.11551077 0.065555915
162800000000 0.21737199 -0.023128763 11.570013 6.5467744 -0.00019581243 8.3001898e-05 0.11879516 0.057176791
162866666666.67 0.21180396 -0.037834063 12.228565 5.4555092 -0.00016490319 8.089366e-05 0.12202524 0.047883097
162933333333.33 0.20582446 -0.054467417 12.681705 4.3293839 -0.00015431854 0.00010231245 0.12393133 0.038531948
163000000000 0.19750223 -0.068115704 13.086747 3.0959234 -0.00015261314 0.00011420449 0.12568831 0.029541645
163066666666.67 0.18996583 -0.080687769 13.376944 1.852157 -0.00012950068 0.00014226195 0.12672471 0.020277165
163133333333.33 0.18086728 -0.096614167 13.498034 0.51229858 -0.00011174206 0.00012629738 0.12672535 0.010890424
163200000000 0.17155871 -0.10728852 13.487566 -0.76050901 -0.00011673819 0.00014095806 0.12592392 0.0015149079
163266666666.67 0.16052815 -0.11720426 13.400681 -1.9418039 -0.0001018855 0.00016716853 0.12485375 -0.007148115
163333333333.33 0.14976636 -0.12955661 13.183653 -3.2310631 -8.1170052e-05 0.00015133787 0.12327369 -0.015897846
163400000000 0.13604872 -0.13803831 12.81439 -4.4421601 -7.7607605e-05 0.00016161014 0.12072547 -0.024676558
163466666666.67 0.12346096 -0.14433485 12.35213 -5.6262913 -7.1647693e-05 0.00017691437 0.11779926 -0.033032522
163533333333.33 0.10931673 -0.15368691 11.811524 -6.8344483 -4.1983709e-05 0.00017047 0.11416875 -0.041739795
163600000000 0.095339485 -0.15784653 11.113458 -7.9377804 -3.3107823e-05 0.00016529849 0.10997916 -0.049938221
163666666666.67 0.082972959 -0.16510426 10.340601 -8.9754629 8.7288499e-06 0.00016245586 0.10569753 -0.057333894
163733333333.33 0.067596361 -0.16849914 9.4603901 -9.9440231 2.4289919e-05 0.0001674411 0.10039654 -0.064830035
163800000000 0.056335561 -0.16940247 8.4697742 -10.812011 1.4895664e-05 0.00017017507 0.094466381 -0.072081104
163866666666.67 0.039740849 -0.17139599 7.4097662 -11.580027 6.9369344e-06 0.0001821809 0.088299081 -0.078616202
163933333333.33 0.027477242 -0.17266965 6.3534193 -12.256697 2.5257254e-05 0.00017063509 0.082045838 -0.084746972
164000000000 0.011901441 -0.17103902 5.1603031 -12.812259 4.8078819e-05 0.00013963526 0.074965172 -0.090672396
164066666666.67 -0.002019085 -0.16953784 3.9863453 -13.292602 6.3182721e-05 0.00013284289 0.067620531 -0.095865235
164133333333.33 -0.013358228 -0.16575721 2.7472649 -13.608011 6.4885957e-05 0.00014118809 0.059702814 -0.10051061
164200000000 -0.02662163 -0.16210498 1.4231863 -13.852004 7.4238706e-05 0.00014192222 0.051700499 -0.10447059
164266666666.67 -0.038271151 -0.15719976 0.12789679 -13.967356 8.2884973e-05 0.00011805461 0.043814618 -0.1078051
164333333333.33 -0.052088328 -0.15369651 -1.1852241 -13.960947 0.00010075938 9.9077544e-05 0.035501815 -0.11053963
164400000000 -0.062511444 -0.14660352 -2.5540383 -13.798962 0.00010131144 0.00010086062 0.026351739 -0.11248339
164466666666.67 -0.074598789 -0.13758001 -3.8634486 -13.402593 0.00012066259 0.00011473364 0.017003668 -0.11323156
164533333333.33 -0.081415132 -0.13254325 -5.0590429 -13.051717 0.00011434229 5.7810816e-05 0.0088557377 -0.11422876
164600000000 -0.092159003 -0.12162094 -6.3044581 -12.555447 0.00010893904 9.0027097e-05 -0.00014356896 -0.11465006
164666666666.67 -0.10020602 -0.11310872 -7.4772873 -11.870104 0.00012308174 7.7333825e-05 -0.0085541774 -0.11414769
164733333333.33 -0.10841351 -0.10506448 -8.5479031 -11.192811 0.0001273372 6.2552768e-05 -0.016788818 -0.11290309
164800000000 -0.1152551 -0.093213111 -9.5757141 -10.316203 0.00011466906 6.2364212e-05 -0.025999404 -0.11145245
164866666666.67 -0.12033369 -0.084679261 -10.556917 -9.3893547 0.00012198401 6.785494e-05 -0.034295458 -0.1093785
164933333333.33 -0.12488291 -0.073642954 -11.367848 -8.3929148 0.00013008039 3.7288104e-05 -0.041975636 -0.10678591
165000000000 -0.12921306 -0.062888548 -12.119203 -7.2728128 0.000122073 3.2647506e-05 -0.050082896 -0.10317384
165066666666.67 -0.13031901 -0.054600753 -12.787869 -6.1105537 0.00015120616 1.531674e-05 -0.057590216 -0.099174984
165133333333.33 -0.13402082 -0.041903012 -13.301678 -4.9250774 0.00014365671 1.0389085e-05 -0.064900413 -0.094884761
165200000000 -0.13548498 -0.029850636 -13.709906 -3.6787722 0.00013160966 -1.2818389e-05 -0.071932979 -0.089386664
165266666666.67 -0.13471721 -0.020026503 -14.005253 -2.3779421 0.00012549761 -1.3533918e-05 -0.07852491 -0.083787903
165333333333.33 -0.13618803 -0.0090164244 -14.161176 -1.0479531 0.00012858785 -6.6241628e-06 -0.084591053 -0.077686086
165400000000 -0.13480537 0.0016113929 -14.227039 0.29832506 0.00013463435 -7.9865704e-06 -0.090500757 -0.071023978
165466666666.67 -0.13165537 0.01187719 -14.136224 1.6292944 0.00011423318 -3.8033453e-05 -0.095268138 -0.064082347
165533333333.33 -0.12914336 0.020518277 -13.915166 2.9430485 0.00011871964 -3.5781512e-05 -0.099935025 -0.056749031
165600000000 -0.12544523 0.030311447 -13.586582 4.2640133 0.00012305321 -1.2316382e-05 -0.10381677 -0.048967231
165666666666.67 -0.12150374 0.040319029 -13.137518 5.5038171 0.0001043624 -4.0179391e-05 -0.10711542 -0.04118165
165733333333.33 -0.11834758 0.047940634 -12.581548 6.6045456 0.00013002404 -6.7601606e-05 -0.10968329 -0.033187553
165800000000 -0.11169988 0.05638168 -11.917465 7.7904925 0.00011918633 -6.0833729e-05 -0.11170205 -0.025156137
165866666666.67 -0.10639149 0.063664719 -11.094077 8.9474831 0.00011677708 -9.1542977e-05 -0.11327835 -0.016805843
165933333333.33 -0.099986538 0.071945541 -10.252359 9.9457207 0.00010542095 -7.3962467e-05 -0.11434565 -0.0089048147
166000000000 -0.093446597 0.077470571 -9.3264885 10.798334 0.00010758694 -8.0844118e-05 -0.11440468 -0.00081791775
166066666666.67 -0.088337928 0.084535517 -8.266943 11.654393 7.4494987e-05 -0.00010677221 -0.11434963 0.0075147077
166133333333.33 -0.07943783 0.088887483 -7.1671104 12.349903 8.8212291e-05 -8.8367437e-05 -0.11334382 0.015545424
166200000000 -0.073857032 0.093451984 -6.0626173 12.964918 9.180179e-05 -0.00013448385 -0.1120715 0.023572871
166266666666.67 -0.065073282 0.098219603 -4.7551041 13.539289 6.207078e-05 -0.00012194029 -0.11029476 0.031820673
166333333333.33 -0.054478325 0.1005894 -3.4902201 13.944835 6.8349444e-05 -0.00010983753 -0.1077492 0.03947366
166400000000 -0.047258697 0.10311575 -2.1622558 14.209693 7.6578828e-05 -0.0001173273 -0.10477977 0.046891995
166466666666.67 -0.039164249 0.10476065 -0.83471537 14.33175 4.8035716e-05 -0.00014094927 -0.10115491 0.054066118
166533333333.33 -0.032549553 0.10488636 0.46024799 14.334653 3.8609742e-05 -0.00012016646 -0.097254463 0.060508639
166600000000 -0.023036718 0.10415525 1.7836175 14.262802 2.6580808e-05 -0.0001421872 -0.092650257 0.067318432
166666666666.67 -0.015571859 0.1047377 3.135139 14.074092 2.4845671e-05 -0.0001293793 -0.08748918 0.073352195
166733333333.33 -0.0080515463 0.10344151 4.3883343 13.707413 3.0335936e-05 -0.00014657842 -0.082243294 0.079052731
166800000000 0.00098854676 0.10200547 5.6286144 13.22897 -1.3211466e-05 -0.00011487784 -0.076127708 0.084389336
166866666666.67 0.0070009632 0.10059088 6.8967485 12.642006 -1.515341e-05 -0.00013259577 -0.069405526 0.08892896
166933333333.33 0.015375413 0.09875983 8.0848293 11.934619 -4.8821057e-06 -0.00014277034 -0.062645704 0.09348619
167000000000 0.020539518 0.094043806 9.0276976 11.238509 -2.2250453e-05 -0.00012391394 -0.056238998 0.097053081
167066666666.67 0.026507683 0.091251835 10.109486 10.274769 -5.8132864e-05 -0.00013177714 -0.048885047 0.10040802
167133333333.33 0.03276911 0.088180885 11.027494 9.3139982 -3.9851904e-05 -0.00013329498 -0.041560329 0.10312469
167200000000 0.036902428 0.082342952 11.840568 8.2535992 -6.7250541e-05 -0.00011595534 -0.034079008 0.10500925
167266666666.67 0.042669669 0.078988984 12.571915 7.1490879 -5.8268764e-05 -0.00013300857 -0.026838973 0.10668548
167333333333.33 0.046705935 0.074529141 13.197724 5.9239349 -8.6859647e-05 -0.00012166867 -0.019460425 0.10748848
167400000000 0.051960614 0.068321325 13.683567 4.7517791 -6.2588791e-05 -0.00011858241 -0.012088966 0.10805838
167466666666.67 0.056188799 0.062574528 14.063287 3.4478383 -9.3504699e-05 -0.00011448061 -0.0048135743 0.10789804
167533333333.33 0.058169104 0.054753382 14.351171 2.1241143 -0.00010939821 -9.1413574e-05 0.0023131371 0.10764088
167600000000 0.059952002 0.050044008 14.440964 0.76496267 -9.3042632e-05 -8.0453457e-05 0.0096723437 0.10660247
167666666666.67 0.062397934 0.046013515 14.467077 -0.59211862 -0.00010853278 -7.2663577e-05 0.016889654 0.10504189
167733333333.33 0.061275728 0.040801037 14.317236 -1.9182949 -0.00012835868 -9.506561e-05 0.023880888 0.10300931
167800000000 0.063311532 0.034049049 14.114525 -3.2241688 -0.00014545217 -5.526009e-05 0.030457092 0.10078099
167866666666.67 0.063386254 0.029946756 13.775226 -4.4874663 -0.00013085705 -7.2344279e-05 0.037063267 0.097767718
167933333333.33 0.065436669 0.022549957 13.303155 -5.8251395 -0.0001162441 -3.6373225e-05 0.043695875 0.094064757
168000000000 0.064061947 0.020420164 12.69848 -7.0361366 -0.00014017336 -4.126742e-05 0.049963284 0.090520248
168066666666.67 0.06213386 0.013148895 12.015018 -8.0859032 -0.00014807888 -4.2350563e-05 0.055129025 0.086260542
168133333333.33 0.060973749 0.0094353985 11.226437 -9.2163115 -0.00012521014 -3.2182314e-05 0.06063848 0.081608981
168200000000 0.060232971 0.0045289453 10.281148 -10.227098 -0.00015302538 3.280511e-07 0.065535568 0.076502219
168266666666.67 0.057969205 -0.0011704098 9.2958069 -11.133515 -0.0001493609 2.0178817e-05 0.069857493 0.071204081
168333333333.33 0.05546844 -0.0046687759 8.248414 -11.976151 -0.00014045399 2.8916296e-05 0.073901638 0.065580092
168400000000 0.051266048 -0.0083573647 7.0572877 -12.646473 -0.00014322982 2.8276307e-05 0.077437006 0.059690721
168466666666.67 0.049671397 -0.010692594 5.9263005 -13.253646 -0.00015309542 3.6950329e-05 0.080246903 0.053624578
168533333333.33 0.042459801 -0.013545805 4.6524591 -13.75861 -0.0001315699 3.8816481e-05 0.083117865 0.047657531
168600000000 0.040563248 -0.018407604 3.4217119 -14.147953 -0.00012611663 6.4355685e-05 0.085028648 0.041647226
168666666666.67 0.03827576 -0.018362822 2.0736532 -14.365081 -0.00013393018 8.2831408e-05 0.086342521 0.03521267
168733333333.33 0.033805843 -0.020894922 0.74433422 -14.508917 -0.00011405753 0.00011130603 0.087780803 0.029115932
168800000000 0.032090653 -0.022037733 -0.64908314 -14.515604 -0.00010589648 9.35731e-05 0.088564306 0.022555847
168866666666.67 0.026976267 -0.022499947 -1.9145508 -14.399623 -0.00010465059 9.6578122e-05 0.088732816 0.016282236
168933333333.33 0.024125706 -0.023655055 -3.2861848 -14.160295 -0.00010589535 0.00011145889 0.088843457 0.0097591095
169000000000 0.018912507 -0.02439186 -4.566473 -13.777821 -8.2439205e-05 0.00011621482 0.088449076 0.003728183
169066666666.67 0.017677428 -0.023583613 -5.8346372 -13.304463 -8.9841633e-05 0.00013650798 0.087252773 -0.0029059071
169133333333.33 0.013072744 -0.022777643 -7.0303764 -12.750252 -8.2107013e-05 0.00012329429 0.086272083 -0.0087512098
169200000000 0.009579258 -0.022543184 -8.1861992 -11.995327 -5.7267971e-05 0.00014205558 0.084225178 -0.014627462
169266666666.67 0.0073949699 -0.020772813 -9.2274132 -11.206622 -3.7041827e-05 0.00014127059 0.082214966 -0.020243866
169333333333.33 0.0054519651 -0.017488016 -10.253603 -10.265478 -2.3700926e-05 0.00013710049 0.079466209 -0.025811451
169400000000 0.003670091 -0.016173005 -11.165339 -9.2778282 -2.4202396e-05 0.00012840306 0.076477498 -0.030956071
169466666666.67 0.0011109842 -0.016065339 -11.953261 -8.2625008 -2.2049706e-05 0.00014708049 0.072781838 -0.035819493
169533333333.33 -0.0024013417 -0.012231593 -12.657145 -7.0946569 2.8676826e-05 0.00015584112 0.069094807 -0.039947499
169600000000 -0.0028394703 -0.011231559 -13.273978 -5.8181272 4.3824584e-06 0.00015167988 0.065419495 -0.044234056
169666666666.67 -0.0050789448 -0.0089206612 -13.744431 -4.6263328 1.401456e-05 0.00015319031 0.061233092 -0.048021466
169733333333.33 -0.0049509825 -0.0050576474 -14.091124 -3.3195925 4.5397257e-05 0.00013574646 0.056762021 -0.051582161
169800000000 -0.0079831565 -0.0019226888 -14.33758 -2.009738 4.942478e-05 0.0001502955 0.052157424 -0.05451721
169866666666.67 -0.0062673655 -0.00050525309 -14.461918 -0.73571658 5.9302009e-05 0.00013563521 0.047388412 -0.057014976
169933333333.33 -0.00824425 0.0022023306 -14.461554 0.63339615 8.4503736e-05 0.00010982725 0.042582072 -0.059496079
170000000000 -0.0074388711 0.0041588945 -14.288526 1.9693687 8.2227351e-05 0.00012679151 0.037120033 -0.061443143
170066666666.67 -0.0069348486 0.0078269141 -14.063091 3.2612774 0.00010424534 9.6301825e-05 0.032155119 -0.062730223
170133333333.33 -0.0048877043 0.0090752775 -13.702328 4.5255623 9.0839312e-05 0.00010208959 0.027093409 -0.063822083
170200000000 -0.0031158919 0.013251264 -13.254896 5.7807112 0.00011100012 0.00010235121 0.02161772 -0.064766906
170266666666.67 -0.0012788151 0.016271975 -12.656178 6.962018 0.0001140567 6.7447647e-05 0.016580639 -0.06500116
170333333333.33 0.00043951999 0.016943168 -11.923724 8.0621557 0.00011221823 8.0218022e-05 0.011549853 -0.064893603
170400000000 0.0026346687 0.020952471 -11.102782 9.1500702 0.00014121582 6.4288033e-05 0.0065175835 -0.064439118
170466666666.67 0.0034968029 0.021129845 -10.222799 10.058692 0.00011105042 3.1474374e-05 0.001635259 -0.06355758
170533333333.33 0.00746377 0.022401994 -9.2433014 10.983435 0.00012165913 4.5013454e-05 -0.0032941252 -0.062332369
170600000000 0.0099303033 0.023563866 -8.2412529 11.766288 0.00013821818 1.6358747e-05 -0.0079982989 -0.060801268
170666666666.67 0.011609796 0.025737753 -7.143117 12.477765 0.00012076342 7.5318421e-06 -0.0123732 -0.058937743
170733333333.33 0.016026611 0.025422782 -5.9997139 13.039081 0.00012550503 1.4729281e-05 -0.016743233 -0.05670049
170800000000 0.019970976 0.024336163 -4.8091245 13.487394 0.00013444727 -7.7130608e-06 -0.02048145 -0.053998325
170866666666.67 0.022294227 0.024029681 -3.4818501 13.845161 0.00013177897 -1.7899463e-05 -0.024274116 -0.05114086
170933333333.33 0.02356223 0.023554202 -2.2388992 14.083313 0.00011855411 6.2772888e-06 -0.027438879 -0.048283294
171000000000 0.027895639 0.021220725 -0.95214415 14.256074 0.00012476351 -2.4744182e-05 -0.030570909 -0.045057476
171066666666.67 0.0309333 0.020991033 0.36483479 14.270154 0.00012052894 -3.2390555e-05 -0.033237472 -0.041482758
171133333333.33 0.033625145 0.020417767 1.7646408 14.153208 9.9811834e-05 -4.9388178e-05 -0.035989918 -0.037897188
171200000000 0.036972702 0.017293105 3.0427325 13.915236 8.9848421e-05 -5.4369804e-05 -0.038026184 -0.034238111
171266666666.67 0.04046391 0.014921606 4.3849912 13.513184 0.00011346691 -7.2407478e-05 -0.039655365 -0.030333642
171333333333.33 0.042407334 0.013325782 5.5775385 13.077098 9.2520684e-05 -9.1819202e-05 -0.041233707 -0.026611559
171400000000 0.045708757 0.009468725 6.6939692 12.490267 6.3564345e-05 -6.6214991e-05 -0.042248826 -0.022560202
171466666666.67 0.047807556 0.0054287463 7.8459034 11.78381 7.8162666e-05 -7.5078868e-05 -0.043163065 -0.018581495
171533333333.33 0.049115069 0.002640795 8.8592873 11.052129 6.3768035e-05 -9.2152666e-05 -0.043663599 -0.01454693
171600000000 0.051585402 -0.00085457973 9.7967625 10.226941 6.3360676e-05 -7.0039998e-05 -0.043678626 -0.01046637
171666666666.67 0.052779552 -0.0051245671 10.678392 9.2479563 5.3491582e-05 -0.00010416291 -0.043270852 -0.0062866355
171733333333.33 0.052574903 -0.009459516 11.466268 8.2405834 4.0252431e-05 -8.959297e-05 -0.042618733 -0.0024213139
171800000000 0.053357281 -0.013062967 12.174727 7.0708666 4.3668457e-05 -0.00010070478 -0.041593771 0.001552606
171866666666.67 0.053426914 -0.01907875 12.726746 6.0046701 3.0031602e-05 -0.00010711044 -0.040454246 0.0052400138
171933333333.33 0.056024749 -0.020751256 13.258488 4.7961264 2.2889713e-05 -0.00010434156 -0.038905177 0.0088240784
172000000000 0.052866757 -0.025872312 13.594263 3.5289271 6.3888201e-06 -9.393246e-05 -0.037045471 0.012142193
172066666666.67 0.051112324 -0.030851386 13.818148 2.3679624 -1.9679828e-05 -9.6664095e-05 -0.034899004 0.015282002
172133333333.33 0.050124809 -0.034499083 13.954936 1.0835009 -2.8549415e-05 -9.9828736e-05 -0.032497905 0.018292656
172200000000 0.048719745 -0.040498119 13.969481 -0.22107983 -2.0066687e-05 -8.5512918e-05 -0.029919796 0.021042038
172266666666.67 0.048290484 -0.042947091 13.866397 -1.5191307 -1.1041462e-05 -0.00010147352 -0.027102025 0.023569115
172333333333.33 0.044865556 -0.047832519 13.683374 -2.7407842 -3.2600808e-05 -7.9306541e-05 -0.024163863 0.025772911
172400000000 0.042172071 -0.052661594 13.368671 -3.891439 -4.118387e-05 -7.4223128e-05 -0.021106752 0.027525047
172466666666.67 0.038009871 -0.055221789 12.951283 -5.1496024 -4.8640024e-05 -7.5071053e-05 -0.017950729 0.02930125
172533333333.33 0.033463307 -0.0581645 12.382362 -6.3578777 -4.2121756e-05 -5.6653989e-05 -0.014670225 0.030558946
172600000000 0.030211993 -0.062898979 11.719761 -7.4309468 -3.6400485e-05 -5.718592e-05 -0.011356696 0.031530149
172666666666.67 0.025439711 -0.066271804 10.926115 -8.5051651 -4.5604218e-05 -4.159566e-05 -0.0079418337 0.03215323
172733333333.33 0.020692848 -0.069838122 10.108389 -9.4125128 -5.6822453e-05 -4.9158902e-05 -0.0044700438 0.032599639
172800000000 0.016580617 -0.071128823 9.1616611 -10.288814 -5.6019893e-05 -4.2748619e-05 -0.00094726123 0.032572605
172866666666.67 0.010149 -0.072606407 8.1917601 -11.120768 -6.8077563e-05 -3.7313279e-05 0.00237747 0.032408889
172933333333.33 0.0055043912 -0.075158253 7.0764694 -11.814348 -5.3893782e-05 -2.3132619e-05 0.0057151201 0.031976599
173000000000 -0.00052401423 -0.074877203 5.9621186 -12.35391 -5.2986081e-05 -7.4699633e-06 0.008932652 0.031151982
173066666666.67 -0.0079549029 -0.076734558 4.8143301 -12.861213 -5.71046e-05 -7.8997382e-06 0.012398127 0.030024119
173133333333.33 -0.010597903 -0.076748684 3.621696 -13.172089 -4.7373826e-05 -1.4915811e-05 0.015248014 0.028601613
173200000000 -0.019570552 -0.075248733 2.405647 -13.427539 -5.0061193e-05 3.1036088e-06 0.018157234 0.026916454
173266666666.67 -0.025572298 -0.07400988 1.2037764 -13.564453 -5.243233e-05 -7.23019e-06 0.021102196 0.024850305
173333333333.33 -0.029896978 -0.074861564 -0.091526508 -13.606098 -5.790795e-05 8.7349144e-06 0.023658972 0.022391889
173400000000 -0.036997315 -0.07293319 -1.2475216 -13.546228 -3.650798e-05 1.0363541e-05 0.026231455 0.020135894
173466666666.67 -0.040142521 -0.069594026 -2.4707375 -13.379661 -4.37901e-05 1.1622391e-05 0.028561968 0.01758102
173533333333.33 -0.047544546 -0.066418469 -3.7159543 -13.062624 -3.2823697e-05 2.4262201e-05 0.030451268 0.014698837
173600000000 -0.052917119 -0.063805386 -4.8777657 -12.575928 -1.2157079e-05 2.4036934e-05 0.032248784 0.011744389
173666666666.67 -0.057466347 -0.059838019 -5.9869385 -12.091618 -1.8181774e-05 1.6709742e-05 0.033499915 0.00862284
173733333333.33 -0.063558646 -0.054809894 -7.048996 -11.467711 -1.3870203e-06 2.3254108e-05 0.034672804 0.0054459544
173800000000 -0.06826441 -0.051366784 -8.0656443 -10.787568 -1.1187711e-06 2.6739446e-05 0.035698712 0.0021424426
173866666666.67 -0.072514378 -0.047607642 -8.9726286 -10.010202 2.4508399e-06 1.7524757e-05 0.03642299 -0.0010678386
173933333333.33 -0.074565813 -0.040085286 -9.8272305 -9.0506992 -1.4427201e-05 9.934065e-06 0.03665011 -0.0043400116
174000000000 -0.078235745 -0.034887806 -10.565376 -8.2060108 -5.9594445e-06 1.8233946e-05 0.036476374 -0.0075157611
174066666666.67 -0.081375189 -0.02920511 -11.235264 -7.1916609 3.8387157e-06 1.184209e-05 0.03603413 -0.010734556
174133333333.33 -0.083416216 -0.023489229 -11.776332 -6.0855742 7.3389324e-06 1.4287642e-05 0.035462391 -0.01393411
174200000000 -0.085049987 -0.017085014 -12.346051 -4.9479632 1.018291e-05 1.6733127e-06 0.034794871 -0.017068947
174266666666.67 -0.087112367 -0.0092279501 -12.685791 -3.8027153 3.3627417e-05 5.4122238e-06 0.03351175 -0.020119192
174333333333.33 -0.089456044 -0.0032704049 -12.946637 -2.6021895 2.502083e-05 -3.1437198e-06 0.032094907 -0.022871338
174400000000 -0.089963526 0.0045647696 -13.149989 -1.4699025 3.2512104e-05 -9.0833801e-06 0.030479284 -0.025320206
174466666666.67 -0.088034026 0.012470926 -13.14192 -0.30318511 2.871387e-05 -2.5984507e-05 0.02859869 -0.027837448
174533333333.33 -0.088285685 0.019378413 -13.101509 0.83778715 2.2432318e-05 -9.6867325e-06 0.026651818 -0.030144483
174600000000 -0.089713529 0.028533015 -12.989844 2.0076137 1.4781796e-05 -2.7950038e-05 0.024510734 -0.032570466
174666666666.67 -0.086940944 0.033028267 -12.739729 3.1017311 9.3399203e-06 -2.5186635e-05 0.022275191 -0.034323201
174733333333.33 -0.084176876 0.040531084 -12.343649 4.2622733 1.8509669e-05 -3.8336257e-05 0.019371167 -0.036115196
174800000000 -0.080820888 0.048586134 -11.903586 5.3748441 -9.2244363e-07 -5.0970993e-05 0.016724464 -0.037600722
174866666666.67 -0.07780505 0.055446923 -11.291592 6.4502497 -4.9453047e-06 -4.3847998e-05 0.01402186 -0.038986169
174933333333.33 -0.073805511 0.062042363 -10.636314 7.4589748 1.1302516e-05 -6.7842026e-05 0.011108957 -0.039922059
175000000000 -0.068302274 0.068519339 -9.8920403 8.3107224 -1.8699575e-05 -7.4602627e-05 0.0081231119 -0.040790819
175066666666.67 -0.064489506 0.074398503 -9.111392 9.168354 -1.4602449e-05 -5.4213546e-05 0.0050321668 -0.041412629
175133333333.33 -0.056690224 0.08117564 -8.2693472 9.920577 -2.6945396e-05 -6.5664455e-05 0.0020767548 -0.041550256
175200000000 -0.050138604 0.086324938 -7.289537 10.598965 -2.126443e-05 -6.6703651e-05 -0.00094213709 -0.041467085
175266666666.67 -0.04266347 0.090541303 -6.3028746 11.177569 -3.2809497e-05 -7.3435782e-05 -0.0034908345 -0.040995307
175333333333.33 -0.036558971 0.095013715 -5.2046523 11.67151 -3.4053704e-05 -8.6906875e-05 -0.006132225 -0.040427372
175400000000 -0.030945253 0.099747166 -4.109458 12.067257 -6.1924307e-05 -7.39803e-05 -0.0087228706 -0.039572347
175466666666.67 -0.020625738 0.10360876 -2.9839735 12.406864 -6.1577863e-05 -6.5349326e-05 -0.01120827 -0.038671538
175533333333.33 -0.014314856 0.10437565 -1.8801494 12.557089 -5.4527714e-05 -7.1998693e-05 -0.013528758 -0.037327938
175600000000 -0.0024030805 0.10782114 -0.76920509 12.623364 -8.0737525e-05 -6.7200941e-05 -0.015608499 -0.036112551
175666666666.67 0.0060908245 0.10702648 0.49350441 12.637383 -9.1593101e-05 -4.7481746e-05 -0.018090583 -0.034726486
175733333333.33 0.016040534 0.10881588 1.6372647 12.504719 -0.00010865738 -4.0719788e-05 -0.01977377 -0.032890845
175800000000 0.024088914 0.10816583 2.7541213 12.281018 -0.00010906879 -4.1351319e-05 -0.021501791 -0.031056084
175866666666.67 0.033698089 0.10705034 3.8379762 11.960911 -0.0001196758 -4.20748e-05 -0.023158371 -0.028985146
175933333333.33 0.043017514 0.10733975 4.9268427 11.494329 -0.00012806157 -9.5677788e-06 -0.024485057 -0.026823722
176000000000 0.052169472 0.1025895 5.8921247 11.007257 -0.00013895272 -6.564067e-06 -0.025242945 -0.025062978
176066666666.67 0.062276728 0.10012993 6.8721991 10.421257 -0.00014496541 -1.1467728e-06 -0.026310891 -0.022515666
176133333333.33 0.069584355 0.094759382 7.7866683 9.6393805 -0.00014339306 1.2886507e-05 -0.026806982 -0.020261372
176200000000 0.078748144 0.089237928 8.6298628 8.8918257 -0.00013825872 2.1587868e-05 -0.027315497 -0.017832825
176266666666.67 0.0888879 0.084472582 9.3053827 8.0795517 -0.0001428289 5.1369199e-05 -0.02712797 -0.015558699
176333333333.33 0.096196063 0.078267828 9.9845114 7.139699 -0.00014925047 5.6864999e-05 -0.027147319 -0.013225416
176400000000 0.10133746 0.075179562 10.565841 6.2056689 -0.00015048533 8.9574307e-05 -0.026797391 -0.010860408
176466666666.67 0.11044782 0.063421227 11.049596 5.1623731 -0.0001414975 7.9888712e-05 -0.026120866 -0.0089196758
176533333333.33 0.12016807 0.056389906 11.457429 4.1803255 -0.00013383928 0.00011215585 -0.025166746 -0.0066377763
176600000000 0.12530929 0.049324792 11.752718 3.0591946 -0.00012579499 0.00011808693 -0.024242062 -0.0045405505
176666666666.67 0.12925644 0.038826738 11.952462 2.0179632 -0.00012520798 0.00012452865 -0.023015857 -0.0027628732
176733333333.33 0.13441111 0.02916952 12.092331 1.0186191 -0.00010884365 0.00014286634 -0.021529138 -0.0010417411
176800000000 0.13847086 0.0210898 12.05252 -0.092442036 -0.00011721975 0.00015139923 -0.019967558 0.0005115075
176866666666.67 0.14199892 0.010159545 11.939741 -1.1912932 -8.9291905e-05 0.00014641132 -0.018368853 0.0016088069
176933333333.33 0.14526881 -0.00055341795 11.736404 -2.3496172 -8.378645e-05 0.00017703448 -0.016841315 0.0027617025
177000000000 0.1482102 -0.01184278 11.444085 -3.3804228 -6.5494016e-05 0.00019029484 -0.014788954 0.0033899881
177066666666.67 0.14599529 -0.025503891 11.071537 -4.316844 -3.6191486e-05 0.00020186063 -0.012924377 0.0039847256
177133333333.33 0.14666843 -0.036653474 10.593179 -5.2796807 -3.5435492e-05 0.00021601527 -0.011105781 0.004249596
177200000000 0.14940906 -0.046187133 10.088211 -6.1796522 -3.1408475e-05 0.00021567519 -0.0091568083 0.0044291168
177266666666.67 0.14334658 -0.061880972 9.4791117 -7.0195832 2.6538828e-07 0.00021877338 -0.0073540695 0.0044780709
177333333333.33 0.14226252 -0.073189169 8.7164097 -7.8544884 -2.4477704e-06 0.00022900227 -0.0049068881 0.004520942
177400000000 0.138056 -0.084664516 7.9166756 -8.604435 1.2004537e-05 0.00024426167 -0.002706388 0.0039577661
177466666666.67 0.13395312 -0.097029448 7.1213894 -9.2358475 4.1627813e-05 0.00023602211 -0.00067948498 0.0032693164
177533333333.33 0.12764408 -0.10877211 6.2462549 -9.8020868 7.5545744e-05 0.0002310408 0.0010864032 0.0026713759
177600000000 0.12311119 -0.12008689 5.3262568 -10.267959 8.5414453e-05 0.00023048226 0.0032391953 0.0013850022
177666666666.67 0.11592951 -0.12828474 4.3794084 -10.650029 0.00012331404 0.00022996585 0.0052091386 -0.0004080201
177733333333.33 0.10864903 -0.13785259 3.3848867 -10.97154 0.00014673843 0.00021511025 0.0070439088 -0.0023295991
177800000000 0.099515922 -0.14809057 2.382782 -11.172942 0.00015825458 0.00020983652 0.0087492326 -0.0039029922
177866666666.67 0.089870706 -0.15858465 1.3493816 -11.382929 0.0001887338 0.00020458011 0.010205392 -0.0065932241
177933333333.33 0.081484437 -0.16610461 0.37354755 -11.364441 0.00018168232 0.00017174201 0.011738235 -0.008825643
178000000000 0.066616446 -0.17473327 -0.70359421 -11.293815 0.00022035121 0.00017243835 0.012173872 -0.011410868
178066666666.67 0.05802124 -0.1816384 -1.7633094 -11.170234 0.00023881713 0.00016188531 0.012867806 -0.014358418
178133333333.33 0.045794576 -0.18852654 -2.7181258 -10.90783 0.00025009259 0.00013094475 0.01329933 -0.017468803
178200000000 0.032342173 -0.19373712 -3.7160857 -10.561006 0.00025654511 9.8665834e-05 0.013220724 -0.0200346
178266666666.67 0.018689539 -0.19893761 -4.639648 -10.133928 0.00025809038 9.5838644e-05 0.013024127 -0.023055863
178333333333.33 0.0055246875 -0.20324531 -5.4154449 -9.6701097 0.00027524235 7.0385417e-05 0.012676689 -0.026154479
178400000000 -0.010816656 -0.2044397 -6.2873144 -9.0441217 0.00030822266 5.4058066e-05 0.012007756 -0.028833931
178466666666.67 -0.023027817 -0.20641612 -7.0226164 -8.4236069 0.0003116712 4.7760041e-06 0.010908825 -0.031722773
178533333333.33 -0.038194433 -0.20954624 -7.7499232 -7.7396092 0.00031191163 4.7456342e-06 0.009932871 -0.034555253
178600000000 -0.0544319 -0.20465074 -8.3408756 -6.9837222 0.00030733616 -3.9499093e-05 0.0085008275 -0.037414398
178666666666.67 -0.068801247 -0.20330974 -8.8707504 -6.1805363 0.00030803157 -5.5807159e-05 0.0068308399 -0.040442239
178733333333.33 -0.082690209 -0.20118958 -9.3705006 -5.3523755 0.00031129736 -6.9821988e-05 0.0047937194 -0.042741816
178800000000 -0.09977404 -0.19815224 -9.7963772 -4.4604201 0.00029789738 -0.00011907863 0.0024803672 -0.045630842
178866666666.67 -0.1092115 -0.19299486 -10.048902 -3.5703466 0.00028003159 -0.00013874925 -0.00029895548 -0.047868326
178933333333.33 -0.12505129 -0.18854088 -10.268358 -2.6886523 0.00027541985 -0.00016910365 -0.0031448565 -0.050066121
179000000000 -0.1394631 -0.18212987 -10.492889 -1.7534814 0.000294909 -0.00018622048 -0.0063016843 -0.052693665
179066666666.67 -0.15343994 -0.17431831 -10.542179 -0.7894578 0.00024969486 -0.00020858609 -0.009733431 -0.054880757
179133333333.33 -0.16566862 -0.16515143 -10.531588 0.1683521 0.00025113951 -0.00023232414 -0.013893542 -0.056849767
179200000000 -0.17926277 -0.15501022 -10.446869 1.1081634 0.00022539735 -0.00025761963 -0.018024454 -0.058506671
179266666666.67 -0.19032192 -0.14325738 -10.262708 2.0397608 0.00020171746 -0.0002706279 -0.022202795 -0.059999339
179333333333.33 -0.20102136 -0.13371938 -9.9928646 2.9161501 0.00017792392 -0.00027152145 -0.026778946 -0.060975716
179400000000 -0.20965669 -0.12196098 -9.6301136 3.7646747 0.00016826713 -0.00028546233 -0.031289771 -0.061613921
179466666666.67 -0.22116268 -0.10719112 -9.1856833 4.6863742 0.00013767695 -0.00032118824 -0.036044247 -0.061843149
179533333333.33 -0.23136128 -0.091533244 -8.6784763 5.4443421 0.00010836776 -0.00033085971 -0.040972866 -0.061581068
179600000000 -0.23748228 -0.079250529 -8.1338253 6.1397023 9.608033e-05 -0.00031634682 -0.04583095 -0.06097566
179666666666.67 -0.24313475 -0.063580111 -7.5025034 6.7860813 5.7836238e-05 -0.0003409491 -0.050475135 -0.060296081
179733333333.33 -0.25054508 -0.047802754 -6.8702383 7.3959985 3.7834121e-05 -0.00036020009 -0.055364393 -0.059423372
179800000000 -0.25614375 -0.031440329 -6.1679878 7.9129109 9.7366355e-06 -0.00035501804 -0.060532156 -0.057802372
179866666666.67 -0.25817078 -0.016135797 -5.4237995 8.3920269 -2.864722e-05 -0.00036415612 -0.065505989 -0.055670954
179933333333.33 -0.26025119 0.0011608228 -4.6187396 8.803627 -4.8028043e-05 -0.0003670174 -0.070252359 -0.053650327
180000000000 -0.26117632 0.018319804 -3.8366303 9.1290321 -7.5699863e-05 -0.0003653359 -0.074892923 -0.051138107
180066666666.67 -0.26262552 0.03486006 -2.9662941 9.3961086 -0.00011798579 -0.00035792936 -0.080081224 -0.048158925
180133333333.33 -0.25929412 0.052582826 -2.1073227 9.5750704 -0.00013330384 -0.00035613964 -0.084503353 -0.044636257
180200000000 -0.25761664 0.068451986 -1.2561883 9.677887 -0.00015627056 -0.00034743568 -0.088702202 -0.041329883
180266666666.67 -0.25222963 0.087341912 -0.39926434 9.6866159 -0.00019448853 -0.0003192366 -0.092862092 -0.03714636
180333333333.33 -0.24936628 0.10593579 0.49159098 9.6462831 -0.00018850918 -0.00032133996 -0.096878365 -0.032777261
180400000000 -0.24309927 0.12132151 1.3361131 9.5317364 -0.00021382967 -0.00030795438 -0.10088748 -0.027779695
180466666666.67 -0.23595773 0.13614003 2.1512418 9.3150511 -0.00025661103 -0.00028269488 -0.10458022 -0.022345398
180533333333.33 -0.22795938 0.15225993 2.9516616 9.0633497 -0.00027266474 -0.00027451885 -0.10769373 -0.017269511
180600000000 -0.21940914 0.16818199 3.680819 8.736412 -0.00030063573 -0.00026754837 -0.11063385 -0.011145458
180666666666.67 -0.20842466 0.18125689 4.4429364 8.3298693 -0.00030989194 -0.00024255438 -0.11340165 -0.0050016362
180733333333.33 -0.19587164 0.19441175 5.1480274 7.8726435 -0.00032848577 -0.00019979656 -0.11542917 0.0017792881
180800000000 -0.18612404 0.20844513 5.8223686 7.3759413 -0.00034728224 -0.00018500342 -0.11755019 0.0086657666
180866666666.67 -0.17206 0.22292219 6.4261913 6.7968025 -0.0003686152 -0.00015290227 -0.11876174 0.015695898
180933333333.33 -0.15640856 0.23194398 6.9898553 6.1346545 -0.00040260062 -0.00011912844 -0.11942077 0.02288432
181000000000 -0.14420858 0.24119046 7.4437466 5.5269299 -0.00039634426 -9.6356467e-05 -0.11977988 0.030273754
181066666666.67 -0.1257868 0.25324538 7.8833404 4.7868495 -0.00040780098 -6.9807691e-05 -0.11946309 0.037888236
181133333333.33 -0.10895385 0.25926504 8.2200279 4.1178737 -0.00040795543 -4.5344917e-05 -0.1188046 0.045799073
181200000000 -0.093456082 0.26880771 8.4742918 3.3229778 -0.00041168806 -5.8526348e-06 -0.11755374 0.053524077
181266666666.67 -0.076514564 0.27309984 8.7039862 2.5602388 -0.00042480297 1.4311081e-05 -0.11585884 0.060874853
181333333333.33 -0.057642251 0.27794805 8.8456936 1.7697384 -0.00040809298 7.1157294e-05 -0.11331476 0.068713583
181400000000 -0.038026989 0.28561503 8.9477568 1.0005264 -0.00040996633 9.0567541e-05 -0.11080895 0.075843632
181466666666.67 -0.019763246 0.28372514 8.9534807 0.20755935 -0.00039502076 0.00015785435 -0.10767759 0.083075002
181533333333.33 -0.0024768487 0.28493336 8.8826599 -0.58433914 -0.00038544208 0.00017124382 -0.10437133 0.09062203
181600000000 0.01710026 0.28537232 8.7517929 -1.3573511 -0.00037965452 0.00020154394 -0.099798366 0.097444266
181666666666.67 0.037341915 0.28520513 8.5318041 -2.156703 -0.00037530385 0.00022460503 -0.094884314 0.10397038
181733333333.33 0.054785836 0.28121105 8.3200579 -2.8413804 -0.00035187983 0.00023613183 -0.089691028 0.11098373
181800000000 0.072614729 0.27747273 7.9980021 -3.5545695 -0.00034228666 0.00028342963 -0.083475649 0.11713719
181866666666.67 0.091298446 0.2719537 7.6131182 -4.2145729 -0.00030695967 0.00029725643 -0.077319667 0.1228865
181933333333.33 0.10946637 0.26557899 7.168541 -4.8333263 -0.00029099081 0.00033512712 -0.070979983 0.12865497
182000000000 0.12662493 0.25817654 6.6782203 -5.4063249 -0.00025032752 0.0003496712 -0.063654259 0.13367979
182066666666.67 0.14428756 0.24698508 6.1133218 -5.9549055 -0.00024032604 0.00036996146 -0.055876493 0.13822065
182133333333.33 0.16209243 0.23766567 5.5633297 -6.4002595 -0.00022564584 0.00037586308 -0.048177276 0.14238203
182200000000 0.17557915 0.22761625 5.0209837 -6.8407431 -0.00018971197 0.00041371532 -0.039695282 0.14640319
182266666666.67 0.19104502 0.21410145 4.3394394 -7.2068243 -0.00015237034 0.00041903078 -0.030977037 0.14903149
182333333333.33 0.20663853 0.20017119 3.6664217 -7.5495901 -0.00011155139 0.00042516668 -0.02187001 0.15186229
182400000000 0.21749312 0.18542857 2.9632802 -7.8146038 -8.9119188e-05 0.0004356936 -0.012196809 0.15418559
182466666666.67 0.22997464 0.16823208 2.2435949 -7.9870362 -5.6787314e-05 0.00045548097 -0.0026776623 0.15545881
182533333333.33 0.23961098 0.15624304 1.5675125 -8.1597528 -2.3884233e-05 0.00045281029 0.0067245588 0.15676141
182600000000 0.25250673 0.13521761 0.76158905 -8.2292118 -5.5313722e-06 0.00044603989 0.017069176 0.15695946
182666666666.67 0.2581695 0.11574155 0.037527561 -8.2290745 5.9228536e-05 0.00044491637 0.027033977 0.15670133
182733333333.33 0.26591319 0.098091498 -0.63054419 -8.1402702 5.7611243e-05 0.00044537586 0.036797978 0.15531623
182800000000 0.27338228 0.07894522 -1.3445632 -8.0292759 9.0605303e-05 0.00045024947 0.046789501 0.15366383
182866666666.67 0.28083012 0.060560994 -2.064971 -7.8084779 0.00014004549 0.00043269337 0.05696952 0.15120979
182933333333.33 0.28160417 0.040526029 -2.7052848 -7.5819097 0.00014597471 0.00042267423 0.066649318 0.14807183
183000000000 0.28428721 0.023602679 -3.4052057 -7.2672157 0.0002154567 0.00041844905 0.07696981 0.14409214
183066666666.67 0.28468421 -6.8061054e-05 -3.9920924 -6.9117279 0.00021844968 0.00040610798 0.086165875 0.13969503
183133333333.33 0.28500652 -0.021028124 -4.5387087 -6.467371 0.00024743041 0.00038459804 0.095598638 0.13390204
183200000000 0.28266072 -0.037522852 -5.0918555 -6.040256 0.0002927435 0.00037799106 0.10434589 0.12796883
183266666666.67 0.27836591 -0.057066031 -5.5682511 -5.5105944 0.00029250185 0.00036594909 0.11251538 0.12161081
183333333333.33 0.27172098 -0.076776244 -5.9924903 -4.9951758 0.00034345506 0.00034025818 0.12025231 0.115146
183400000000 0.26652819 -0.09658847 -6.3750687 -4.4250836 0.00035664745 0.00032996654 0.12808108 0.10768971
183466666666.67 0.25623125 -0.1180058 -6.6747689 -3.8487163 0.00038538463 0.00030163056 0.13493037 0.09998744
183533333333.33 0.24887235 -0.13401538 -6.9321141 -3.2304339 0.00039134111 0.0002803893 0.14111617 0.090670586
183600000000 0.23609312 -0.15416941 -7.1761904 -2.5877306 0.00044585232 0.00025962846 0.1475527 0.081702352
183666666666.67 0.22528899 -0.16879317 -7.3034511 -1.9961381 0.00045183854 0.00019476443 0.15246977 0.072271347
183733333333.33 0.21565302 -0.18226618 -7.4358516 -1.3034112 0.00049545337 0.00017581189 0.15738875 0.062447835
183800000000 0.19728735 -0.19853929 -7.4857993 -0.61639571 0.00049647357 0.00013186998 0.16192628 0.051768355
183866666666.67 0.18304993 -0.21302465 -7.4406633 0.019681931 0.00050844974 0.00012825028 0.16513854 0.041359935
183933333333.33 0.16624346 -0.22510424 -7.376225 0.68147683 0.00052506488 6.1915009e-05 0.16808704 0.030116757
184000000000 0.14877281 -0.23993489 -7.2819214 1.3593199 0.0005299105 1.9867875e-05 0.17010395 0.019299172
184066666666.67 0.13128863 -0.24968258 -7.1009541 1.974267 0.00052928348 1.121131e-05 0.17159192 0.008005959
184133333333.33 0.11077628 -0.2552343 -6.8384142 2.5503747 0.0005413274 -2.9158269e-05 0.1725336 -0.0028673559
184200000000 0.094407931 -0.2629889 -6.5457821 3.1420259 0.00051865255 -9.51486e-05 0.17150301 -0.015530482
184266666666.67 0.072804198 -0.27077505 -6.2196808 3.6766205 0.00052648666 -0.00013005429 0.17050378 -0.026738847
184333333333.33 0.055452421 -0.27465627 -5.8535848 4.1851521 0.0005179015 -0.00017524611 0.16863781 -0.038618289
184400000000 0.031191438 -0.27771059 -5.4351854 4.6328592 0.00051817019 -0.00020362523 0.16646707 -0.048939213
184466666666.67 0.011613613 -0.28321078 -4.9892011 5.0776005 0.00052001141 -0.00024836755 0.16367002 -0.060379308
184533333333.33 -0.0099804103 -0.27978584 -4.4758301 5.4373112 0.00050507887 -0.00030368794 0.15891713 -0.071109593
184600000000 -0.030238368 -0.2787914 -3.9460511 5.8403215 0.00047815515 -0.00032189471 0.15446989 -0.083119385
184666666666.67 -0.05248512 -0.27673584 -3.4269066 6.1320605 0.00045408926 -0.00036157732 0.14963667 -0.092986129
184733333333.33 -0.0721635 -0.27175465 -2.862721 6.3814855 0.00042595522 -0.00038119865 0.14373326 -0.10291748
184800000000 -0.092628047 -0.26567316 -2.276371 6.5426579 0.00039661943 -0.00044390652 0.1367882 -0.11220334
184866666666.67 -0.11054079 -0.25934255 -1.6992022 6.6648726 0.00037979888 -0.00046049498 0.12911882 -0.12162919
184933333333.33 -0.13355514 -0.25197208 -1.0858796 6.7929926 0.00034012337 -0.0004890525 0.12158396 -0.13104081
185000000000 -0.15173142 -0.24161814 -0.50443769 6.8208451 0.00028405478 -0.00052244333 0.11308844 -0.13919102
185066666666.67 -0.16863582 -0.2320812 0.11230505 6.7986245 0.00025375458 -0.00054922799 0.10362386 -0.146621
185133333333.33 -0.18318962 -0.216242 0.69223261 6.721034 0.00022284154 -0.00056659494 0.093248822 -0.15430427
185200000000 -0.20036224 -0.2020085 1.2984309 6.6052608 0.00016147367 -0.00059419486 0.082572922 -0.16094187
185266666666.67 -0.21492884 -0.18830319 1.8459911 6.4195156 0.00010774245 -0.00062367675 0.071152255 -0.16649692
185333333333.33 -0.22944283 -0.1708871 2.4242949 6.1780977 7.8265264e-05 -0.00059576466 0.059359185 -0.17180243
185400000000 -0.24038175 -0.15561697 2.9274926 5.9267616 1.4208956e-05 -0.00063437282 0.047724143 -0.1758686
185466666666.67 -0.25099418 -0.1328482 3.3991332 5.5565104 -1.1789874e-05 -0.0006247253 0.035093769 -0.17858152
185533333333.33 -0.26309639 -0.11651503 3.8796227 5.2136006 -6.5888824e-05 -0.00062046206 0.021500682 -0.18089126
185600000000 -0.27213284 -0.098116927 4.2519689 4.8322124 -0.00010692138 -0.00063738739 0.010160893 -0.18210413
185666666666.67 -0.27945632 -0.078781672 4.6898413 4.3899236 -0.00014965367 -0.00066723512 -0.0029375553 -0.1830788
185733333333.33 -0.2824142 -0.0572583 4.9969959 3.9547443 -0.00018345118 -0.00058471214 -0.016149096 -0.18236795
185800000000 -0.28717297 -0.034610011 5.2902856 3.4699872 -0.00026056104 -0.00058794033 -0.027868893 -0.18214834
185866666666.67 -0.29192039 -0.015031535 5.5461736 3.0133438 -0.00030697472 -0.00058827701 -0.04089269 -0.17982943
185933333333.33 -0.29344213 0.011354968 5.7676611 2.4768863 -0.00037700491 -0.00057552161 -0.054204755 -0.17652005
186000000000 -0.29187083 0.029873524 5.8882475 1.9665486 -0.00042077509 -0.00049664266 -0.065921709 -0.17270175
186066666666.67 -0.29155794 0.049550764 5.991241 1.4365258 -0.0004525875 -0.00049285265 -0.078070201 -0.16802807
186133333333.33 -0.287678 0.075212002 6.0700178 0.87186909 -0.00047993028 -0.00047476598 -0.089961372 -0.16217402
186200000000 -0.27895382 0.093684852 6.0713377 0.35838771 -0.00049876561 -0.00042575749 -0.10087553 -0.1558156
186266666666.67 -0.27505818 0.1121321 6.044045 -0.1702593 -0.00054528733 -0.000394167 -0.11211026 -0.14892045
186333333333.33 -0.26684088 0.13547978 5.9609613 -0.69164956 -0.00058097026 -0.00035550393 -0.12293573 -0.14055789
186400000000 -0.25561953 0.15357572 5.8424788 -1.2147045 -0.00061499345 -0.00028110843 -0.13218287 -0.13223675
186466666666.67 -0.24431209 0.17173061 5.6639113 -1.7178128 -0.00064589758 -0.00024483004 -0.14194006 -0.12303511
186533333333.33 -0.23265134 0.19508317 5.4882336 -2.1977434 -0.00065792375 -0.00021188761 -0.15027702 -0.11260862
186600000000 -0.21759401 0.20777805 5.2039614 -2.6418707 -0.00067523163 -0.00018241502 -0.15828404 -0.10170355
186666666666.67 -0.20250705 0.2237924 4.9606457 -3.051579 -0.00068005535 -0.00010483047 -0.16590099 -0.090594411
186733333333.33 -0.18742286 0.23768818 4.6454139 -3.4317603 -0.00069938949 -4.5568479e-05 -0.17250946 -0.078865618
186800000000 -0.16964947 0.25713009 4.2708135 -3.862325 -0.00070482458 -2.3612738e-06 -0.17865957 -0.065388337
186866666666.67 -0.15136853 0.2633011 3.8910344 -4.1530309 -0.00069804816 5.1368464e-05 -0.18278705 -0.053908832
186933333333.33 -0.13177016 0.27897885 3.4885712 -4.4569416 -0.0006979563 0.00011861806 -0.18641922 -0.040567182
187000000000 -0.11319771 0.28659797 3.0620046 -4.6981606 -0.00067568524 0.00018220532 -0.18948999 -0.02652818
187066666666.67 -0.090913691 0.29631847 2.6300385 -4.9394765 -0.00068426313 0.00022100269 -0.19161054 -0.013095666
187133333333.33 -0.068312399 0.30128115 2.1561208 -5.0972548 -0.00064580119 0.00028476282 -0.19259246 -0.0005062297
187200000000 -0.046939641 0.3077547 1.6896359 -5.2418861 -0.00063921907 0.00032379985 -0.19229455 0.013952225
187266666666.67 -0.025019865 0.30925679 1.2354136 -5.3047891 -0.00060380081 0.00037422244 -0.1909412 0.027583085
187333333333.33 -0.0055580661 0.31292334 0.74232733 -5.3779535 -0.00057202228 0.00042975091 -0.1889575 0.041879594
187400000000 0.021342888 0.31708461 0.25238132 -5.369534 -0.00054423342 0.00046583393 -0.18502358 0.05608692
187466666666.67 0.041343503 0.3131631 -0.18274319 -5.3374052 -0.0004927144 0.00051556167 -0.18167502 0.069218539
187533333333.33 0.065662339 0.30987856 -0.64084995 -5.2804646 -0.00045328698 0.00055803958 -0.17630145 0.082663096
187600000000 0.087554343 0.30311498 -1.1231948 -5.1462183 -0.0004069542 0.00057319558 -0.17035317 0.095762953
187666666666.67 0.10959986 0.30061108 -1.551281 -5.0037146 -0.00037730124 0.0006050443 -0.16327676 0.10749675
187733333333.33 0.13171573 0.29392996 -1.9634167 -4.8193541 -0.00033118238 0.00063677412 -0.15505458 0.11972374
187800000000 0.15446773 0.28026175 -2.367142 -4.5663867 -0.00026847888 0.0006534828 -0.14645185 0.13068612
187866666666.67 0.1742979 0.27031353 -2.7317452 -4.3339663 -0.00021693962 0.00068241509 -0.13709839 0.14117049
187933333333.33 0.19387151 0.25964409 -3.0914631 -4.0337539 -0.00016540021 0.00070746109 -0.12629701 0.15199548
188000000000 0.21208538 0.24790317 -3.3758056 -3.746727 -0.00012001125 0.00071088586 -0.11561529 0.16080822
188066666666.67 0.23076048 0.23224983 -3.6448402 -3.4122205 -7.9398364e-05 0.00072175107 -0.10466573 0.16860476
188133333333.33 0.24770483 0.21136084 -3.9108052 -3.0263321 9.3996641e-07 0.00070835336 -0.092193142 0.17714487
188200000000 0.26223832 0.19433095 -4.1232729 -2.644558 5.0172879e-05 0.00072761934 -0.079312012 0.1839799
188266666666.67 0.27717951 0.17813262 -4.3287835 -2.2637687 0.00012661559 0.00071151508 -0.065576941 0.19005729
188333333333.33 0.28811151 0.1563528 -4.4698305 -1.8852898 0.00015122586 0.00069017068 -0.052922558 0.19561273
188400000000 0.29846534 0.14080518 -4.5668125 -1.4515662 0.00021890079 0.00070151023 -0.037334815 0.19917262
188466666666.67 0.31173626 0.1161149 -4.6605268 -1.0343409 0.00027374621 0.00068698154 -0.022770703 0.20254019
188533333333.33 0.31856456 0.092008024 -4.7024956 -0.62590218 0.00030708179 0.00064040133 -0.008197926 0.20486063
188600000000 0.32545811 0.070296399 -4.6976595 -0.22541761 0.00036560153 0.00064107531 0.0063507929 0.20548907
188666666666.67 0.33240536 0.047661915 -4.6375337 0.20373189 0.00042598648 0.00057448086 0.022432219 0.20514797
188733333333.33 0.33507636 0.023198381 -4.5835996 0.6001879 0.00046315434 0.00055897172 0.036769971 0.20410641
188800000000 0.33424449 -8.3938241e-05 -4.4641581 1.0220169 0.00049945794 0.0005092778 0.052066393 0.20095332
188866666666.67 0.33886507 -0.027791254 -4.3301244 1.3820691 0.00053391932 0.00049098424 0.066784054 0.19794407
188933333333.33 0.33524549 -0.04719064 -4.1354585 1.7244706 0.00056635356 0.00042782383 0.081461951 0.19295567
189000000000 0.32858598 -0.073403455 -3.9365683 2.0538273 0.00060765393 0.00039979475 0.095240921 0.18757793
189066666666.67 0.32706866 -0.097506285 -3.7462769 2.3671117 0.0006036777 0.00034085882 0.1090958 0.18125993
189133333333.33 0.31900772 -0.12080234 -3.4551437 2.6673071 0.00064524706 0.0002938025 0.12259208 0.17279948
189200000000 0.30985138 -0.14444327 -3.1710656 2.9501028 0.00065035548 0.00024157883 0.13527599 0.16410068
189266666666.67 0.30216742 -0.16659549 -2.9084568 3.1670427 0.00068666379 0.00016722413 0.14799362 0.15465662
189333333333.33 0.29148626 -0.19142288 -2.6087618 3.3847787 0.00068797829 0.00013547213 0.15976028 0.14489062
189400000000 0.27629691 -0.20819373 -2.2605007 3.5448208 0.00069609203 7.8249112e-05 0.169792 0.13336603
189466666666.67 0.26076216 -0.22840714 -1.8989406 3.7070751 0.00070224755 3.6119574e-05 0.18146995 0.12094954
189533333333.33 0.24287036 -0.24897447 -1.5430133 3.8128352 0.00070392736 -1.8205988e-05 0.18990344 0.10854971
189600000000 0.23063199 -0.26758015 -1.2210045 3.9187577 0.00068141427 -8.1697188e-05 0.19814344 0.095925376
189666666666.67 0.20861149 -0.27841419 -0.85254395 3.9418154 0.00068351434 -0.00012955777 0.20486964 0.081227727
189733333333.33 0.18843731 -0.29501018 -0.49573064 3.9630258 0.00066288095 -0.00017318614 0.2118122 0.066508852
189800000000 0.16679657 -0.31048536 -0.16399705 3.9548483 0.00064033468 -0.00020967695 0.21728361 0.051736802
189866666666.67 0.14658891 -0.32226503 0.18256275 3.9130392 0.00061754248 -0.0002651141 0.22145192 0.036975708
189933333333.33 0.12452962 -0.33195555 0.50506902 3.8344355 0.00058413023 -0.00031729977 0.22476599 0.019487098
190000000000 0.09790051 -0.34132165 0.83732307 3.7280037 0.00057211524 -0.00038216019 0.22694345 0.0040445775
190066666666.67 0.074313387 -0.34582573 1.1430981 3.5943613 0.00054328056 -0.00040449118 0.22807232 -0.011967659
190133333333.33 0.047771111 -0.35265285 1.4407716 3.440299 0.00052175333 -0.0004335675 0.22823082 -0.027436413
190200000000 0.024108708 -0.35787016 1.7229817 3.2615025 0.00047442561 -0.00047288361 0.22628853 -0.044691555
190266666666.67 -0.0012679845 -0.35858569 1.9684697 3.058145 0.00043418998 -0.00051207223 0.22341955 -0.061159946
190333333333.33 -0.026762843 -0.35684749 2.2121203 2.8480473 0.00040646654 -0.00053285365 0.22120503 -0.078032345
190400000000 -0.052075624 -0.35450065 2.4081421 2.6342044 0.00036337567 -0.00057570712 0.21633725 -0.093643695
190466666666.67 -0.078653291 -0.35242474 2.5945525 2.3754041 0.0003163105 -0.00058957021 0.21022885 -0.10904913
190533333333.33 -0.10073742 -0.34701523 2.7446196 2.1200862 0.00027442945 -0.00061216333 0.2032485 -0.12380538
190600000000 -0.12850544 -0.34206063 2.8752484 1.8580678 0.00023255752 -0.00063037686 0.19558336 -0.13904375
190666666666.67 -0.14790617 -0.33019823 2.9765105 1.5852144 0.00018794338 -0.00063776877 0.18527202 -0.15286121
190733333333.33 -0.17242943 -0.32185271 3.0666819 1.3149763 0.00014181173 -0.00062448689 0.17580923 -0.16732748
190800000000 -0.19774672 -0.30627376 3.1410303 1.0230834 7.9294339e-05 -0.00064917747 0.16490453 -0.18065573
190866666666.67 -0.21800618 -0.29455736 3.1554155 0.73742235 3.578121e-05 -0.00065361225 0.15143411 -0.19250131
190933333333.33 -0.24147213 -0.27673855 3.1572781 0.46641397 -1.2485296e-05 -0.00064060919 0.13763773 -0.20381615
191000000000 -0.26183766 -0.2605553 3.1386263 0.21646431 -4.6752451e-05 -0.00064159936 0.12427066 -0.21346959
191066666666.67 -0.27994895 -0.24260205 3.0967107 -0.049497724 -9.4174495e-05 -0.00063320447 0.11040012 -0.22280687
191133333333.33 -0.29684791 -0.22680815 3.0493898 -0.27848876 -0.00014168298 -0.00061437581 0.095602997 -0.23090468
191200000000 -0.31030399 -0.20180586 2.9625266 -0.50936294 -0.00020186843 -0.00061602064 0.07928443 -0.23795983
191266666666.67 -0.32215518 -0.18150912 2.8701959 -0.71418607 -0.00022122507 -0.00057791389 0.062974185 -0.24417672
191333333333.33 -0.33880663 -0.15951201 2.7674723 -0.93942815 -0.00024758471 -0.00057784736 0.04591459 -0.24966805
191400000000 -0.34812939 -0.13494012 2.6555941 -1.1345749 -0.00030890421 -0.00053935178 0.02887319 -0.25299072
191466666666.67 -0.35902819 -0.11281609 2.5487487 -1.3068749 -0.00034317345 -0.00052352314 0.012756592 -0.25672746
191533333333.33 -0.36206925 -0.085185707 2.4132175 -1.4560282 -0.00036474975 -0.00048059749 -0.0049317777 -0.25699711
191600000000 -0.37268665 -0.05993145 2.2750225 -1.6439097 -0.00040468673 -0.00046286822 -0.025126211 -0.25736356
191666666666.67 -0.3745254 -0.032395616 2.1344018 -1.7988368 -0.00042908223 -0.000447258 -0.041326784 -0.25605348
191733333333.33 -0.37652472 -0.0062133372 1.9707673 -1.9428263 -0.00047501916 -0.00038273423 -0.059283786 -0.25385705
191800000000 -0.37529346 0.020815641 1.8062954 -2.0843825 -0.00050673983 -0.00033995201 -0.07709419 -0.25064194
191866666666.67 -0.37657958 0.045001708 1.6409719 -2.2080338 -0.00052772264 -0.00031809899 -0.093117744 -0.24601397
191933333333.33 -0.37420338 0.069593519 1.4616417 -2.3261001 -0.00052727642 -0.00028492819 -0.11051345 -0.23995376
192000000000 -0.36919892 0.095750108 1.2654754 -2.4195499 -0.00056122267 -0.00024246663 -0.1311727 -0.23026378
192066666666.67 -0.3603715 0.12230305 1.0831447 -2.5088389 -0.00056157442 -0.00021941448 -0.14328131 -0.22260438
192133333333.33 -0.35258755 0.14643106 0.87023902 -2.5784822 -0.0005469899 -0.00014205104 -0.15788566 -0.2142081
192200000000 -0.34083933 0.17244789 0.6581682 -2.6359282 -0.00058828224 -0.00014313047 -0.17366934 -0.20445512
192266666666.67 -0.32981345 0.2004142 0.42839083 -2.6767762 -0.0005667567 -6.6559187e-05 -0.18740019 -0.19113615
192333333333.33 -0.31094459 0.22088566 0.19577518 -2.70613 -0.00057949999 -3.4156597e-05 -0.20122615 -0.17768514
192400000000 -0.29597074 0.24085793 -0.018593311 -2.6948175 -0.00057976064 2.259262e-05 -0.21236396 -0.16576375
192466666666.67 -0.27852544 0.26051363 -0.25082672 -2.67694 -0.00056421111 1.7126004e-05 -0.2237785 -0.15188064
192533333333.33 -0.25798959 0.28035754 -0.4822197 -2.6157737 -0.00058022223 9.627016e-05 -0.23367944 -0.13519369
192600000000 -0.24112254 0.29779732 -0.68809646 -2.5579598 -0.00055468042 0.00011605886 -0.24307284 -0.12015785
192666666666.67 -0.21960317 0.31642795 -0.9089362 -2.4769516 -0.00055460213 0.00016306278 -0.2516064 -0.10376842
192733333333.33 -0.1958884 0.33186531 -1.1323173 -2.3732324 -0.00053080724 0.00021092145 -0.25875497 -0.085213579
192800000000 -0.16997746 0.34092668 -1.3249174 -2.2629414 -0.0005431333 0.00022420759 -0.26685363 -0.068352111
192866666666.67 -0.14844757 0.3574875 -1.5027665 -2.1232924 -0.00048659145 0.00026669604 -0.27028379 -0.050211348
192933333333.33 -0.12320732 0.37186342 -1.6504568 -1.9880434 -0.00046488704 0.00027378247 -0.27339181 -0.032081466
193000000000 -0.09239696 0.37053907 -1.7977235 -1.8030448 -0.00045724621 0.00032737246 -0.27445203 -0.012427539
193066666666.67 -0.065073609 0.38222724 -1.9572611 -1.6135527 -0.0004071889 0.00034960988 -0.27593356 0.0070890114
193133333333.33 -0.041206554 0.38846293 -2.0622346 -1.4542875 -0.00039513069 0.00036777632 -0.27621791 0.024076071
193200000000 -0.024201944 0.38551241 -2.1708567 -1.2555686 -0.00036450627 0.00042610848 -0.27600414 0.043400049
193266666666.67 0.011533573 0.38992113 -2.2462487 -1.0556326 -0.00036414404 0.00042777724 -0.27111617 0.06123849
193333333333.33 0.038261317 0.38814831 -2.3083003 -0.83469462 -0.00030169141 0.00046284395 -0.26649797 0.080464356
193400000000 0.0658838 0.3844223 -2.3390493 -0.63628209 -0.00028640474 0.00047935126 -0.26031566 0.098243453
193466666666.67 0.096456751 0.38559073 -2.3834603 -0.42110842 -0.00024739903 0.0004545105 -0.25354064 0.11670034
193533333333.33 0.11710048 0.37723994 -2.387928 -0.23255679 -0.00019751489 0.00046877199 -0.24723534 0.13349116
193600000000 0.1420413 0.36706412 -2.3723874 -0.034967363 -0.00015700499 0.00047814421 -0.23711763 0.15004256
193666666666.67 0.16968265 0.35283142 -2.349093 0.18120831 -0.00016092743 0.00051397446 -0.22776842 0.16588661
193733333333.33 0.19754827 0.34288573 -2.2952762 0.36756864 -0.00011385759 0.00051046361 -0.21459983 0.1807023
193800000000 0.22082859 0.3260569 -2.237843 0.56208849 -8.2648592e-05 0.00048353197 -0.20197958 0.19521113
193866666666.67 0.24090257 0.30923712 -2.1686618 0.74636626 -6.2690902e-05 0.00051426521 -0.18897992 0.20894721
193933333333.33 0.26306605 0.29136795 -2.0620556 0.90787601 -2.8634095e-06 0.00052123953 -0.17514473 0.22171225
194000000000 0.28378662 0.27139086 -1.948432 1.0906072 3.9309467e-05 0.00048438984 -0.15961647 0.23362225
194066666666.67 0.29901996 0.24743861 -1.8329904 1.2238436 3.6792451e-05 0.00050767977 -0.14418429 0.24378562
194133333333.33 0.31718662 0.23494309 -1.7187065 1.3616627 9.6171876e-05 0.00048712039 -0.12574458 0.25498378
194200000000 0.33168739 0.20124251 -1.5742823 1.4993434 0.00012539103 0.00049954979 -0.1096155 0.26359183
194266666666.67 0.34874585 0.18145707 -1.4404979 1.5859799 0.00013315221 0.00047244487 -0.092793256 0.26964739
194333333333.33 0.36591333 0.15000501 -1.2895253 1.7113556 0.00019707314 0.0004858594 -0.074409664 0.27822003
194400000000 0.37317863 0.12686554 -1.1137882 1.781233 0.00020755587 0.00045275217 -0.053302258 0.28237236
194466666666.67 0.38084137 0.10610406 -0.95968503 1.8353825 0.00025583926 0.00044218785 -0.033498056 0.28422904
194533333333.33 0.38055068 0.077217199 -0.80992609 1.9003346 0.00025499478 0.0004048674 -0.015450543 0.28922543
194600000000 0.39660996 0.048675627 -0.62158573 1.9556584 0.00029755215 0.00040389656 0.0058626607 0.28865233
194666666666.67 0.39552712 0.017359108 -0.44212824 1.9609499 0.00032860669 0.00038434251 0.025881849 0.28713772
194733333333.33 0.39269128 -0.010409404 -0.28930581 1.9740169 0.00035454967 0.00036457271 0.044240117 0.28644866
194800000000 0.39483148 -0.031145692 -0.12031502 1.9712561 0.00039409657 0.00033444486 0.063485712 0.2828857
194866666666.67 0.39091378 -0.063105166 0.066953838 1.9513531 0.00038634564 0.00032082171 0.082889333 0.2789782
194933333333.33 0.38262656 -0.091323189 0.22035629 1.9249541 0.00042254874 0.00030259663 0.10348029 0.27389398
195000000000 0.38040471 -0.11783483 0.36220142 1.8683814 0.00042260753 0.00025038415 0.12132476 0.26572728
195066666666.67 0.37305152 -0.14903042 0.53051138 1.8191705 0.00042739493 0.00020540287 0.138457 0.25925037
195133333333.33 0.35288256 -0.17030899 0.67084587 1.7587479 0.00044052524 0.00019460623 0.15788519 0.24926886
195200000000 0.3433536 -0.19573408 0.78824419 1.6814839 0.00046254811 0.00015621239 0.17406712 0.23845893
195266666666.67 0.32450074 -0.22349739 0.92814213 1.5844381 0.00047544824 0.00011158807 0.19010541 0.22723788
195333333333.33 0.30900741 -0.23579371 1.0261041 1.4745693 0.00048751361 0.00010261836 0.20516184 0.21412873
195400000000 0.29718214 -0.26764476 1.1470686 1.3735696 0.00049032125 5.9609549e-05 0.21908377 0.20082957
195466666666.67 0.27350768 -0.2783927 1.2361095 1.2466536 0.00050037599 3.5616889e-05 0.23384795 0.18393537
195533333333.33 0.25846142 -0.30186597 1.341815 1.1377735 0.00047238858 1.1819284e-06 0.247476 0.1677231
195600000000 0.23523293 -0.31981656 1.4124235 1.0175167 0.00049034425 -3.8903523e-05 0.25836253 0.15267169
195666666666.67 0.20873652 -0.3338508 1.479509 0.88852614 0.00050236424 -6.8591282e-05 0.27092433 0.13441603
195733333333.33 0.1823366 -0.35466444 1.5342493 0.74677157 0.00046510025 -9.5558193e-05 0.27859929 0.11590812
195800000000 0.15626748 -0.36151433 1.557269 0.62640041 0.00047293532 -0.00013435679 0.28721932 0.097521186
195866666666.67 0.12764631 -0.37446016 1.6094192 0.48732522 0.00046596752 -0.00015960877 0.29565468 0.078091606
195933333333.33 0.097701505 -0.37941533 1.6132603 0.34090048 0.00043977334 -0.00019989224 0.30110329 0.05628594
196000000000 0.078708835 -0.38696262 1.6159708 0.20933861 0.00041898779 -0.00021217763 0.30398926 0.036277968
196066666666.67 0.056128517 -0.39274994 1.6002017 0.076898754 0.00043416291 -0.00025230262 0.30494124 0.015510909
196133333333.33 0.021614164 -0.39293736 1.5905645 -0.062588155 0.00038040642 -0.00027365002 0.30752021 -0.0043625981
196200000000 -0.011979677 -0.39527974 1.5583342 -0.19556302 0.00037219201 -0.00034300581 0.30792999 -0.024253421
196266666666.67 -0.036277838 -0.39570433 1.5124558 -0.32513878 0.00036318781 -0.00028797222 0.30439481 -0.045489807
196333333333.33 -0.063974082 -0.38998657 1.4732267 -0.42887664 0.00036259688 -0.00034224489 0.3021228 -0.065647885
196400000000 -0.088750944 -0.38316014 1.4095294 -0.54859316 0.00030716619 -0.00033392172 0.29692554 -0.084666312
196466666666.67 -0.11772993 -0.37710625 1.3497398 -0.65084821 0.00028482772 -0.00039307433 0.29289681 -0.10619067
196533333333.33 -0.14797902 -0.36512414 1.2768966 -0.75573224 0.00024886848 -0.00039262231 0.28488818 -0.12596136
196600000000 -0.16718829 -0.36191985 1.2060438 -0.84919465 0.00023849373 -0.00042993791 0.27788213 -0.14263445
196666666666.67 -0.19596547 -0.34290481 1.1189202 -0.93599564 0.0001962161 -0.00041066573 0.26847842 -0.16318733
196733333333.33 -0.22090486 -0.33289281 1.0295634 -1.0069299 0.00015710221 -0.0004282727 0.25754142 -0.18040854
196800000000 -0.24080229 -0.31022844 0.91968405 -1.0767095 0.00013209165 -0.00044880691 0.24394464 -0.19816461
196866666666.67 -0.26278606 -0.29684457 0.8260085 -1.1319871 0.00012390561 -0.00044210453 0.23200795 -0.21506459
196933333333.33 -0.28421852 -0.27534068 0.72955102 -1.1874223 9.188152e-05 -0.00046365408 0.22013906 -0.22768882
197000000000 -0.30053437 -0.25153637 0.61598307 -1.2202964 8.1041828e-05 -0.00045670028 0.20218372 -0.2422674
197066666666.67 -0.319947 -0.22583371 0.50207889 -1.2568587 3.667218e-05 -0.00045180495 0.18637225 -0.25716516
197133333333.33 -0.33357015 -0.20576829 0.40934476 -1.2727244 -8.7499793e-06 -0.00044655072 0.17012185 -0.26798937
197200000000 -0.34326243 -0.18062913 0.29843548 -1.2866555 -5.2989606e-05 -0.0004365528 0.15250066 -0.27913189
197266666666.67 -0.36022586 -0.14850417 0.18257794 -1.2890321 -6.692054e-05 -0.00043994281 0.13379338 -0.28992876
197333333333.33 -0.37016955 -0.12812279 0.079084992 -1.2857946 -8.4346393e-05 -0.00047365268 0.11418964 -0.29791835
197400000000 -0.37692857 -0.10282369 -0.014097929 -1.2761166 -0.0001145131 -0.00043911263 0.096340232 -0.30448961
197466666666.67 -0.38060012 -0.070569269 -0.1283004 -1.2575333 -0.0001458312 -0.00042618273 0.075530671 -0.31136104
197533333333.33 -0.38774332 -0.048044026 -0.22691742 -1.2294315 -0.00017118598 -0.00042348582 0.055011168 -0.31532571
197600000000 -0.38703158 -0.020390153 -0.32022372 -1.1934004 -0.00021300543 -0.00040432691 0.033479616 -0.31950638
197666666666.67 -0.38865724 0.012849607 -0.41313678 -1.147436 -0.00021957446 -0.00038857298 0.011840791 -0.32003322
197733333333.33 -0.38588366 0.041816182 -0.50330341 -1.0956463 -0.00025617413 -0.00036855644 -0.0083228759 -0.32030812
197800000000 -0.38215801 0.069359243 -0.58557081 -1.0384634 -0.000287948 -0.00036695262 -0.028989628 -0.31993526
197866666666.67 -0.37901205 0.098091103 -0.65371984 -0.98382646 -0.00029041985 -0.00034629458 -0.049992435 -0.31705526
197933333333.33 -0.36766583 0.12341374 -0.72462678 -0.91343665 -0.00031740501 -0.00033362224 -0.070834085 -0.31338105
198000000000 -0.36164141 0.15036516 -0.78273076 -0.84389246 -0.00032569081 -0.00030099787 -0.091067597 -0.3081274
198066666666.67 -0.3452054 0.17494063 -0.83786047 -0.76960683 -0.00036937685 -0.00026970883 -0.11189336 -0.3010937
198133333333.33 -0.33528891 0.19856995 -0.88712829 -0.68898475 -0.00036289368 -0.0002446947 -0.12901057 -0.29381728
198200000000 -0.3188436 0.22357528 -0.93601692 -0.60408193 -0.00038125555 -0.00023860643 -0.14758185 -0.28418493
198266666666.67 -0.30025426 0.2454786 -0.95747423 -0.5201692 -0.00038220134 -0.00021813181 -0.166401 -0.27299863
198333333333.33 -0.27923647 0.27021992 -0.99006486 -0.44697022 -0.00039778888 -0.00017046701 -0.18156263 -0.26316744
198400000000 -0.2593233 0.28756303 -1.0114869 -0.3567431 -0.00040896737 -0.00017089488 -0.1992594 -0.24987356
198466666666.67 -0.24179131 0.305493 -1.0242265 -0.27809748 -0.00041848316 -0.00011380932 -0.21446903 -0.23587558
198533333333.33 -0.21501625 0.32432553 -1.0245985 -0.18784034 -0.00043516076 -8.4522668e-05 -0.22941996 -0.22007455
198600000000 -0.18722305 0.33782965 -1.0265384 -0.10082817 -0.00043719559 -7.2856732e-05 -0.24461991 -0.20242812
198666666666.67 -0.16700831 0.34913325 -1.0176678 -0.022584498 -0.00044752206 -3.6696889e-05 -0.25562865 -0.18820843
198733333333.33 -0.13593882 0.36364892 -1.0068089 0.061954699 -0.00044659691 -1.0840085e-06 -0.26699752 -0.16988935
198800000000 -0.11007383 0.36844024 -0.98034286 0.14774552 -0.0004374141 1.6976672e-05 -0.27698874 -0.15171452
198866666666.67 -0.083110854 0.38073641 -0.96504778 0.21444833 -0.00043824079 4.1894949e-05 -0.28696948 -0.13363059
198933333333.33 -0.050909672 0.38109386 -0.928258 0.2887322 -0.00043965137 8.3184961e-05 -0.29294068 -0.11383335
199000000000 -0.027332857 0.38620347 -0.88887239 0.36015987 -0.00042384554 0.00010015581 -0.29928061 -0.095183104
199066666666.67 0.0033756495 0.38897184 -0.84642458 0.42548913 -0.00040432022 0.00013187155 -0.30421072 -0.074184678
199133333333.33 0.031710707 0.38555381 -0.79966962 0.48338592 -0.00041304628 0.00016668517 -0.30724919 -0.053718824
199200000000 0.063719392 0.38299558 -0.7549665 0.53253323 -0.00041125328 0.00017477456 -0.3092646 -0.03359545
199266666666.67 0.090356626 0.37379614 -0.69650662 0.59112942 -0.00037661591 0.00020420935 -0.31022561 -0.012610778
199333333333.33 0.11442659 0.3728824 -0.64467931 0.63791096 -0.00037730296 0.00023496627 -0.3094559 0.0091776615
199400000000 0.14442995 0.36011544 -0.58699143 0.67350245 -0.00036333015 0.00025340798 -0.30737999 0.027476743
199466666666.67 0.1744428 0.35588628 -0.52633035 0.71308899 -0.00035625938 0.00025482566 -0.30345106 0.049258016
199533333333.33 0.19871655 0.33756292 -0.46168491 0.73949021 -0.0003011181 0.00030291663 -0.29823953 0.069069482
199600000000 0.2246203 0.31757939 -0.39482027 0.7660107 -0.00031136264 0.00029845093 -0.29254487 0.087671712
199666666666.67 0.24573117 0.30501714 -0.328605 0.78883421 -0.0002873881 0.0002969713 -0.28506947 0.10605233
199733333333.33 0.27192545 0.28616852 -0.26929867 0.8010155 -0.00026476412 0.00035904493 -0.27623063 0.12650841
199800000000 0.29456377 0.2671895 -0.20180592 0.81239533 -0.00023460205 0.00037697059 -0.26537672 0.14353608
199866666666.67 0.3152847 0.24075258 -0.13538232 0.81293005 -0.0002033374 0.00035557165 -0.25548226 0.1585041
199933333333.33 0.33036274 0.21881075 -0.067318231 0.81118792 -0.00018996479 0.00038824117 -0.24139018 0.1774694
200000000000 0.34820056 0.19057095 0.002102375 0.80462945 -0.00016939759 0.00039692965 -0.22913419 0.19341277
200066666666.67 0.36479369 0.16750105 0.054522134 0.7945829 -0.00014536252 0.00040480791 -0.2148819 0.20734584
200133333333.33 0.380032 0.13868754 0.11988711 0.77807295 -0.00010301379 0.00037917701 -0.19926059 0.22227767
200200000000 0.3888455 0.11170249 0.18096 0.75513136 -8.0760714e-05 0.00044915895 -0.18251941 0.2342861
200266666666.67 0.39645159 0.078982428 0.23533067 0.72938043 -3.433926e-05 0.00041172406 -0.16552982 0.24535272
200333333333.33 0.40475929 0.056079112 0.29643333 0.69663936 -3.2694028e-05 0.00043502572 -0.14567657 0.25571996
200400000000 0.40655625 0.016835093 0.34356031 0.66139513 -1.0479984e-05 0.00043078541 -0.1274125 0.26473239
200466666666.67 0.41271916 -0.0080251619 0.38294059 0.62439418 2.402113e-05 0.000408686 -0.10728316 0.27103126
200533333333.33 0.40897608 -0.039874002 0.42294019 0.58681667 4.4977889e-05 0.00041375362 -0.087209977 0.27763796
200600000000 0.41001749 -0.066076085 0.46648067 0.54827511 8.5394364e-05 0.00044159632 -0.06626913 0.28196114
200666666666.67 0.40550965 -0.095251299 0.50507027 0.50253606 9.7243828e-05 0.0004124408 -0.043888971 0.28564307
200733333333.33 0.39901245 -0.13098781 0.52870601 0.45875335 0.00014059289 0.00038820159 -0.024707343 0.28738871
200800000000 0.39242071 -0.16915053 0.55442798 0.40549478 0.00016010937 0.00040094162 -0.0057740547 0.28727347
200866666666.67 0.38060337 -0.19240502 0.57864076 0.35960811 0.00018750798 0.0003755764 0.016746208 0.28623646
200933333333.33 0.36638927 -0.21970141 0.58919287 0.31159097 0.00021373888 0.00033268277 0.036923438 0.28243175
201000000000 0.34957445 -0.24613461 0.60848016 0.26350906 0.00022288485 0.00033146073 0.057698667 0.27838176
201066666666.67 0.32410622 -0.2755706 0.61860663 0.21010171 0.00024159079 0.00031584763 0.07822001 0.27334374
201133333333.33 0.30241129 -0.30004629 0.62544322 0.16299634 0.00026983052 0.00032919849 0.097600788 0.26634997
201200000000 0.28789467 -0.32232156 0.62704843 0.1098931 0.00024591811 0.00030417429 0.11790716 0.25496659
201266666666.67 0.26225433 -0.34312657 0.62356448 0.068945259 0.00029247807 0.00028927112 0.13647842 0.24815425
201333333333.33 0.23637855 -0.37183812 0.62393093 0.021479547 0.00033911882 0.00027661928 0.15414323 0.23572071
201400000000 0.21228793 -0.38714314 0.61413491 -0.022405162 0.00030997812 0.00025159845 0.17196055 0.22293025
201466666666.67 0.18335091 -0.39917737 0.6099261 -0.065692976 0.00036436901 0.0002293076 0.18784137 0.2096732
201533333333.33 0.15811613 -0.41565633 0.59913611 -0.10915804 0.00035580099 0.00020652179 0.20178112 0.19343783
201600000000 0.1208794 -0.42841679 0.58414447 -0.15211678 0.00037088469 0.0001921209 0.2170337 0.18081746
201666666666.67 0.094894759 -0.4385511 0.57091004 -0.1966003 0.00036436989 0.00016553243 0.23021653 0.16238706
201733333333.33 0.056699984 -0.44141355 0.54282993 -0.23511937 0.00040016798 0.00014184772 0.24258186 0.14323798
201800000000 0.027807757 -0.44341427 0.52721906 -0.27825809 0.00040861039 0.00012843574 0.25187987 0.12644844
201866666666.67 -0.0083187446 -0.45069355 0.49768472 -0.30613089 0.00039182717 0.00010225122 0.26115918 0.10829136
201933333333.33 -0.038183898 -0.44674712 0.46989304 -0.34818465 0.00041906565 8.081305e-05 0.26961985 0.087108642
202000000000 -0.066631451 -0.44260848 0.43936113 -0.38016465 0.00040840672 1.8806328e-05 0.2744692 0.065723233
202066666666.67 -0.095913015 -0.4347496 0.40356731 -0.41432303 0.00039933305 4.1581116e-05 0.28089762 0.045449857
202133333333.33 -0.12726977 -0.43324956 0.37326476 -0.43938395 0.00040209785 1.211794e-05 0.28325641 0.024141468
202200000000 -0.15928639 -0.41861507 0.33017448 -0.46390474 0.00041872016 -3.4664918e-05 0.28669459 0.0048846006
202266666666.67 -0.18848796 -0.40763572 0.28417021 -0.48354179 0.00041571562 -4.2275613e-05 0.28505915 -0.016808145
202333333333.33 -0.21582402 -0.3969973 0.25007981 -0.50256163 0.0004214918 -6.1775361e-05 0.28511927 -0.039134674
202400000000 -0.24497321 -0.38423547 0.19952774 -0.51954031 0.00040735342 -8.6190965e-05 0.28219649 -0.060294986
202466666666.67 -0.27322203 -0.37218404 0.16448821 -0.53313124 0.00039444328 -0.00013387334 0.28079373 -0.082059883
202533333333.33 -0.28897738 -0.34678611 0.12027217 -0.53348798 0.00041172182 -0.00013515944 0.27312389 -0.10200281
202600000000 -0.31486785 -0.33538863 0.078495219 -0.54555666 0.00038304357 -0.00017369061 0.26564065 -0.12306693
202666666666.67 -0.33293298 -0.30857024 0.031242013 -0.53454775 0.00039727712 -0.0001997043 0.25725532 -0.14357191
202733333333.33 -0.35551345 -0.29008269 -0.0070943534 -0.5286569 0.00038099784 -0.00021381296 0.24486879 -0.16264482
202800000000 -0.3739486 -0.26476714 -0.054117687 -0.52017838 0.00036085135 -0.00023860805 0.23469061 -0.18050584
202866666666.67 -0.39229968 -0.23750654 -0.094875202 -0.50775737 0.00034782919 -0.00027067435 0.22229356 -0.19756976
202933333333.33 -0.40561116 -0.2130577 -0.13277708 -0.49190786 0.0003319188 -0.00028090962 0.20767 -0.21531168
203000000000 -0.42309701 -0.18904954 -0.16645759 -0.47805029 0.00032151668 -0.00031650628 0.19334161 -0.2314216
203066666666.67 -0.43368554 -0.15829626 -0.20331745 -0.45858625 0.00028697919 -0.00033550733 0.17591551 -0.24836209
203133333333.33 -0.44568771 -0.13079816 -0.23668294 -0.43729615 0.0002903156 -0.00035208004 0.158571 -0.26226369
203200000000 -0.44898647 -0.10200632 -0.26605535 -0.40705797 0.000248094 -0.00037380849 0.13910499 -0.27421629
203266666666.67 -0.45806336 -0.072508067 -0.29517958 -0.38340843 0.00022394388 -0.00038497589 0.12022414 -0.28704104
203333333333.33 -0.4659946 -0.043808945 -0.32281932 -0.35300052 0.0002108546 -0.00040189509 0.099523999 -0.29507548
203400000000 -0.46206501 -0.017147437 -0.3426857 -0.3216984 0.00018441388 -0.00041846302 0.077148438 -0.3028031
203466666666.67 -0.47031865 0.016846806 -0.36312282 -0.29519245 0.00015056347 -0.00042095923 0.056730308 -0.31101069
203533333333.33 -0.46548316 0.049673092 -0.37917379 -0.26107767 0.00011174205 -0.00045170967 0.035451572 -0.31533411
203600000000 -0.45957291 0.077186763 -0.39047134 -0.23071842 0.00011481858 -0.00045038541 0.014266521 -0.31980628
203666666666.67 -0.45484108 0.10889901 -0.40095657 -0.19117567 6.5196786e-05 -0.00044226134 -0.010544077 -0.320261
203733333333.33 -0.44657072 0.13911662 -0.41141441 -0.15980376 5.8968955e-05 -0.00045860891 -0.031513561 -0.3224687
203800000000 -0.43604159 0.16269249 -0.41408131 -0.12914187 3.8141749e-05 -0.00045629762 -0.05429738 -0.32203349
203866666666.67 -0.42943543 0.19242138 -0.42044711 -0.097443923 -1.8140912e-05 -0.00048137858 -0.076853685 -0.31936669
203933333333.33 -0.41552868 0.2178984 -0.42133346 -0.059838198 -3.1116826e-05 -0.00044669368 -0.10083785 -0.31569436
204000000000 -0.39518026 0.24766752 -0.41708368 -0.030415852 -8.8745946e-05 -0.00045847014 -0.12246706 -0.3097519
204066666666.67 -0.38194788 0.27651516 -0.41730586 0.0024525374 -9.2756192e-05 -0.00045403122 -0.14575291 -0.30244148
204133333333.33 -0.36575794 0.29959345 -0.41408062 0.035593644 -0.00011433809 -0.00045574189 -0.16859974 -0.29393864
204200000000 -0.34370464 0.32127392 -0.40350837 0.063664377 -0.00014549185 -0.00044858878 -0.18834013 -0.28408805
204266666666.67 -0.32377124 0.34485593 -0.39655668 0.095399022 -0.00018288902 -0.00043940716 -0.21151361 -0.26870602
204333333333.33 -0.29711661 0.36450028 -0.38122684 0.11907823 -0.00020570357 -0.00043084173 -0.23186722 -0.25414622
204400000000 -0.27499169 0.37964144 -0.36879387 0.14336318 -0.00024342866 -0.00042152579 -0.24773747 -0.24163824
204466666666.67 -0.25120634 0.39912647 -0.34948975 0.17004135 -0.0002612111 -0.00039894771 -0.26637504 -0.22519572
204533333333.33 -0.22143844 0.40715727 -0.33758444 0.19646356 -0.00029578072 -0.0003876898 -0.28333032 -0.20702519
204600000000 -0.20113021 0.42530891 -0.31802133 0.21818423 -0.00030007865 -0.00035192457 -0.29811275 -0.1868895
204666666666.67 -0.17102645 0.43443084 -0.3001672 0.23704582 -0.00033895008 -0.00035765296 -0.31110498 -0.16554993
204733333333.33 -0.14152502 0.44235 -0.27454516 0.25666165 -0.00038236764 -0.00033695356 -0.32216257 -0.14303823
204800000000 -0.10776074 0.44797778 -0.25131077 0.27206233 -0.00037559264 -0.00029692065 -0.3340466 -0.12332871
204866666666.67 -0.086376272 0.45773312 -0.22938274 0.28827095 -0.00039432265 -0.00030903838 -0.34156173 -0.098606251
204933333333.33 -0.050095405 0.46037242 -0.20446631 0.30342361 -0.00043678228 -0.00025984546 -0.34824798 -0.073337302
205000000000 -0.016085118 0.46849659 -0.18468377 0.314533 -0.0004598785 -0.00021175643 -0.35050747 -0.052542984
205066666666.67 0.010153979 0.45944825 -0.15729028 0.31997192 -0.0004616974 -0.00018994571 -0.3527807 -0.029019028
205133333333.33 0.035334826 0.45841885 -0.12837049 0.32875288 -0.00047536733 -0.00018812885 -0.35653731 -0.0060658753
205200000000 0.073035702 0.45135409 -0.10436995 0.33973894 -0.00049815257 -0.00013241767 -0.35584265 0.015921518
205266666666.67 0.10341552 0.44721738 -0.07873138 0.33914629 -0.00051877066 -9.2575559e-05 -0.35308072 0.038945906
205333333333.33 0.12775154 0.43832144 -0.050025102 0.34460175 -0.00051116775 -5.1548603e-05 -0.35123593 0.062720843
205400000000 0.16272688 0.43389636 -0.02777116 0.34551695 -0.00051637046 -4.7783658e-05 -0.34742373 0.083366126
205466666666.67 0.1885919 0.41694921 -0.0007314086 0.34306705 -0.00050367555 -2.6250782e-05 -0.34098989 0.10654885
205533333333.33 0.22120385 0.40827215 0.027806088 0.34078884 -0.00051193469 -1.3953584e-05 -0.33403075 0.12962866
205600000000 0.23444328 0.38907513 0.051530484 0.33352506 -0.00054501509 3.0901228e-05 -0.32605344 0.15037003
205666666666.67 0.26074737 0.36213076 0.076940574 0.3222819 -0.00053052703 8.6083979e-05 -0.31728202 0.16800593
205733333333.33 0.28589618 0.34559551 0.09891285 0.31477502 -0.00051743892 0.00011024908 -0.30577832 0.18701833
205800000000 0.30850378 0.32977152 0.12317646 0.30500367 -0.00051776139 0.00013632426 -0.29377067 0.20733869
205866666666.67 0.33459491 0.30718142 0.14724948 0.29111153 -0.00050383981 0.00017953696 -0.27958521 0.22476631
205933333333.33 0.35859519 0.28155684 0.16741072 0.27651608 -0.00050315278 0.00022017205 -0.26463595 0.2431193
206000000000 0.36726487 0.25408822 0.18460694 0.26112875 -0.00048019306 0.00024495591 -0.25009117 0.25897875
206066666666.67 0.38810709 0.22263826 0.2047518 0.24226898 -0.00047919143 0.00028363697 -0.2343902 0.2731207
206133333333.33 0.39782354 0.19329002 0.22120085 0.22432798 -0.00045654638 0.00030759082 -0.21566604 0.28921676
206200000000 0.4121882 0.16777602 0.23278973 0.2031468 -0.00044677002 0.0003532785 -0.19987622 0.30147237
206266666666.67 0.42330143 0.14076288 0.25018409 0.18473533 -0.00041429861 0.00038925401 -0.17789865 0.3155593
206333333333.33 0.42381775 0.10502963 0.25741848 0.16457906 -0.00040366291 0.00040120547 -0.16092169 0.32485831
206400000000 0.42513135 0.071618006 0.2674028 0.14379832 -0.00035077837 0.00040280379 -0.14169672 0.33462384
206466666666.67 0.43609589 0.041109294 0.27569595 0.12065874 -0.00033255163 0.00045698191 -0.11986884 0.34358609
206533333333.33 0.44089919 0.013883412 0.28170541 0.098138325 -0.00032587207 0.00047532248 -0.097070806 0.35035241
206600000000 0.42929059 -0.014722988 0.28359449 0.077153005 -0.0002887946 0.00050569221 -0.075843073 0.35454819
206666666666.67 0.43395439 -0.053024262 0.29085478 0.052107677 -0.00027319923 0.0005095324 -0.052368283 0.35917988
206733333333.33 0.4243485 -0.080360867 0.29080278 0.025024697 -0.00021873001 0.00052696199 -0.028540611 0.36032182
206800000000 0.41375521 -0.11498351 0.29037556 0.0056521706 -0.00018160672 0.00055352348 -0.0073988549 0.36315227
206866666666.67 0.40417254 -0.14670081 0.28614116 -0.015153788 -0.00015348932 0.00055909617 0.0161383 0.36255899
206933333333.33 0.39811501 -0.17090775 0.28103667 -0.036769859 -0.00012462627 0.00056919729 0.037454337 0.35898656
207000000000 0.37800813 -0.20002139 0.27651471 -0.054080855 -7.9375131e-05 0.00056968018 0.062588662 0.35838556
207066666666.67 0.36159164 -0.22810288 0.27131423 -0.077156022 -2.4278954e-05 0.00058726827 0.084047921 0.35397989
207133333333.33 0.34554735 -0.24914338 0.26186943 -0.092905767 5.7336583e-06 0.00058719632 0.10499714 0.3474932
207200000000 0.31902748 -0.27392089 0.25041601 -0.11685158 7.168937e-05 0.00058696017 0.12685101 0.33999968
207266666666.67 0.29907525 -0.29743636 0.23729205 -0.12865362 8.7367123e-05 0.00060552615 0.14819601 0.33124506
207333333333.33 0.28002763 -0.32329062 0.22678986 -0.14743258 0.00011761097 0.00060497958 0.16523735 0.32128584
207400000000 0.25488523 -0.34352243 0.20985907 -0.16636062 0.00016938944 0.00060231995 0.18872833 0.3079876
207466666666.67 0.22310352 -0.35778049 0.1932224 -0.17831174 0.00021680494 0.00055711111 0.20400436 0.29487988
207533333333.33 0.2031808 -0.37613449 0.17848471 -0.18881783 0.00025115511 0.00056816294 0.22338814 0.2814095
207600000000 0.16652578 -0.3788873 0.16119261 -0.20330329 0.00028715201 0.00053600187 0.24322012 0.26344141
207666666666.67 0.14376263 -0.40105027 0.14539807 -0.21117772 0.00033779169 0.00053258211 0.25469917 0.24842493
207733333333.33 0.10214873 -0.40358377 0.12535551 -0.22112358 0.00037195193 0.00051363598 0.27300751 0.23259847
207800000000 0.082635894 -0.41514969 0.1142224 -0.22831036 0.00039055356 0.00049888249 0.28670031 0.21181534
207866666666.67 0.052105732 -0.42111376 0.088657521 -0.23103955 0.0004131973 0.00047022459 0.29658374 0.19227932
207933333333.33 0.014104791 -0.42427748 0.072560385 -0.23863612 0.00045363209 0.00043253257 0.30618656 0.17312095
208000000000 -0.016156048 -0.42361313 0.054829605 -0.23715796 0.00047351344 0.00040981549 0.31769651 0.15361588
208066666666.67 -0.048487276 -0.41841227 0.032671817 -0.23917821 0.00051552441 0.00037340674 0.32451674 0.12929912
208133333333.33 -0.079952516 -0.4161379 0.016020827 -0.24011417 0.00053795893 0.00032334664 0.3343302 0.11209843
208200000000 -0.11143628 -0.40464476 -0.0054971855 -0.23781185 0.00058181357 0.00029214608 0.33795097 0.084035553
208266666666.67 -0.13783354 -0.3977201 -0.022402138 -0.23637429 0.00058975961 0.00027378395 0.340666 0.061651021
208333333333.33 -0.17259184 -0.38463706 -0.03616266 -0.23573703 0.00060809392 0.00023125038 0.34245086 0.042685509
208400000000 -0.20063749 -0.37208933 -0.053901367 -0.22408237 0.00062159286 0.000179711 0.34506294 0.018942494
208466666666.67 -0.23411354 -0.35477453 -0.069529817 -0.2189109 0.00063404703 0.00014479723 0.34553844 -0.0020594001
208533333333.33 -0.25401643 -0.3393952 -0.085793629 -0.20653796 0.0006591666 8.3867111e-05 0.33934516 -0.026208207
208600000000 -0.28597546 -0.32373133 -0.10039563 -0.20297834 0.00064099522 6.3170941e-05 0.33695894 -0.049256943
208666666666.67 -0.309176 -0.29723865 -0.11543281 -0.18953003 0.00067093316 -3.5336707e-06 0.33173847 -0.071346909
208733333333.33 -0.33098021 -0.27775133 -0.12695149 -0.17861831 0.00066014752 -2.9338233e-05 0.32356322 -0.091976918
208800000000 -0.3601529 -0.25312808 -0.13703336 -0.1685787 0.00065681728 -8.2822866e-05 0.31510046 -0.11251803
208866666666.67 -0.37182382 -0.2243467 -0.14833596 -0.15588301 0.00066452863 -0.00012714641 0.30583727 -0.13423687
208933333333.33 -0.38719442 -0.20862162 -0.15687995 -0.1444957 0.00064858946 -0.00019796217 0.29488099 -0.15223593
209000000000 -0.40076941 -0.16624188 -0.16673584 -0.12682047 0.00063755509 -0.00020639601 0.28203845 -0.17103654
209066666666.67 -0.41446811 -0.14228611 -0.17489198 -0.11041016 0.0006239363 -0.00027469965 0.26923382 -0.18815917
209133333333.33 -0.42600173 -0.11305626 -0.18010473 -0.099554032 0.00061021547 -0.000301869 0.25455254 -0.20799419
209200000000 -0.43474814 -0.080341548 -0.18402785 -0.080681629 0.00059151818 -0.0003393949 0.23763247 -0.22305951
209266666666.67 -0.44357938 -0.054120325 -0.18657704 -0.069488019 0.00056924962 -0.00038511789 0.22145291 -0.23780496
209333333333.33 -0.44535106 -0.014517322 -0.18756747 -0.052995786 0.00054867944 -0.00042108656 0.201483 -0.25056329
209400000000 -0.44943511 0.011268139 -0.1955155 -0.042372979 0.00050635211 -0.00045843242 0.182575 -0.26300856
209466666666.67 -0.44954103 0.04741035 -0.19680405 -0.025489403 0.00051135343 -0.00047051333 0.16334537 -0.27434704
209533333333.33 -0.4422093 0.075488195 -0.19684866 -0.010937825 0.00043655795 -0.00052001304 0.14498109 -0.28457481
209600000000 -0.44430539 0.11704552 -0.19255944 0.006231159 0.00039936526 -0.00055129209 0.12309259 -0.29372105
209666666666.67 -0.43383479 0.14316994 -0.18709806 0.02155932 0.00037375253 -0.00059170491 0.10171153 -0.29779777
209733333333.33 -0.42953777 0.17564255 -0.18481164 0.034069404 0.00032644771 -0.00060373003 0.080213383 -0.30328214
209800000000 -0.4067246 0.20304218 -0.18155262 0.050939485 0.00027867872 -0.00062756584 0.058138691 -0.30813873
209866666666.67 -0.39515942 0.23693636 -0.17381747 0.05952201 0.00023472021 -0.00066684617 0.034276746 -0.30817333
209933333333.33 -0.381955 0.27133515 -0.16857965 0.074758396 0.00019407917 -0.00066570798 0.013747578 -0.30859965
210000000000 -0.3655065 0.29061565 -0.15939406 0.082280271 0.00015768492 -0.00068857899 -0.0087287128 -0.30767989
210066666666.67 -0.35032672 0.3223649 -0.15094301 0.097167619 9.2934322e-05 -0.00067960314 -0.034313567 -0.30308765
210133333333.33 -0.33324844 0.34395573 -0.14085913 0.10556029 5.5289715e-05 -0.00067204755 -0.056690961 -0.30003241
210200000000 -0.3002857 0.3725355 -0.13164096 0.11389144 4.4173852e-05 -0.00068758707 -0.077403031 -0.2924819
210266666666.67 -0.28173342 0.38702083 -0.1181232 0.12309274 -2.53045e-05 -0.00071721856 -0.099213421 -0.28586701
210333333333.33 -0.25377774 0.41079336 -0.10823272 0.129949 -7.4308176e-05 -0.00067721569 -0.12018136 -0.27495784
210400000000 -0.2302925 0.42704135 -0.10196938 0.13067806 -9.707686e-05 -0.00067565736 -0.13896209 -0.26515809
210466666666.67 -0.19017184 0.45485714 -0.092041589 0.14412624 -0.00016761178 -0.00069293799 -0.15878217 -0.25367647
210533333333.33 -0.17194709 0.45833078 -0.072914898 0.14786704 -0.00020632608 -0.00066779414 -0.17854711 -0.23975241
210600000000 -0.13991472 0.4772943 -0.065519743 0.15150474 -0.00026563153 -0.00065032957 -0.19456774 -0.22381221
210666666666.67 -0.11136792 0.48582578 -0.051810261 0.15510355 -0.00028392341 -0.00062987517 -0.21260352 -0.20943859
210733333333.33 -0.075270191 0.49464658 -0.042820647 0.15778047 -0.00034226183 -0.00061323377 -0.2255986 -0.19220741
210800000000 -0.049433008 0.49777436 -0.028280005 0.15804181 -0.00037182792 -0.0005950089 -0.24006641 -0.17350532
210866666666.67 -0.012645863 0.50122857 -0.015045174 0.16111234 -0.00041823561 -0.00056546269 -0.25228795 -0.15505262
210933333333.33 0.02469337 0.50806725 -0.0042020455 0.15761499 -0.00044717005 -0.0005273791 -0.26319835 -0.13319457
211000000000 0.062163025 0.50131774 0.0048673823 0.15490904 -0.0004969571 -0.00050719711 -0.27232087 -0.11305671
211066666666.67 0.094077587 0.4984248 0.020231284 0.15077984 -0.00052795582 -0.00045654917 -0.27980483 -0.091078259
211133333333.33 0.11939903 0.49079105 0.033480275 0.1490358 -0.00057368778 -0.00043331255 -0.28716025 -0.066565149
211200000000 0.14483327 0.49032223 0.040051311 0.14413401 -0.00058501522 -0.00038968475 -0.29131263 -0.045153886
211266666666.67 0.18580535 0.48301747 0.050610185 0.1392394 -0.00061298901 -0.00034631102 -0.29462513 -0.022998633
211333333333.33 0.21600375 0.46853781 0.060603015 0.12946251 -0.00062544865 -0.00029270083 -0.2937355 0.00013776869
211400000000 0.24306856 0.45834294 0.069269158 0.12514532 -0.00067247939 -0.00027898903 -0.29402614 0.02414304
211466666666.67 0.28047022 0.44022173 0.079438254 0.1187699 -0.00067002245 -0.00023552369 -0.29055265 0.046354625
211533333333.33 0.30856535 0.42511305 0.086994432 0.11374699 -0.00067991664 -0.00020130799 -0.28906524 0.069945693
211600000000 0.32912263 0.40626666 0.093194418 0.10723904 -0.00069292035 -0.00015869392 -0.28320983 0.093291678
211666666666.67 0.34746304 0.38682067 0.098054193 0.099909097 -0.00070892309 -0.0001101603 -0.27704611 0.11489692
211733333333.33 0.37410089 0.36621842 0.10428946 0.088641219 -0.00070536474 -6.2181614e-05 -0.26856816 0.13593079
211800000000 0.4032079 0.33547994 0.11026733 0.082600102 -0.00071330759 -9.9791214e-06 -0.25681615 0.157464
211866666666.67 0.41591394 0.30679721 0.11432208 0.069322363 -0.00072536321 2.5252433e-05 -0.24530265 0.17898163
211933333333.33 0.444859 0.28651088 0.12041108 0.061310157 -0.00072199595 0.00010164334 -0.2312772 0.19729428
212000000000 0.470256 0.26149839 0.1222684 0.053445917 -0.00070566055 0.00014452203 -0.21564957 0.21589008
212066666666.67 0.48065111 0.22913209 0.12051263 0.044699389 -0.00068614655 0.00020002607 -0.20078737 0.23345608
212133333333.33 0.49843729 0.19784743 0.12827988 0.034797098 -0.000685404 0.00021140752 -0.18286778 0.24987854
212200000000 0.50808895 0.1660057 0.12779495 0.02534676 -0.00065946823 0.00027298564 -0.16662568 0.26388457
212266666666.67 0.5185622 0.1392855 0.12773287 0.014393747 -0.00066463859 0.00031382847 -0.14579569 0.27882931
212333333333.33 0.52196509 0.11191837 0.1227721 0.0046616374 -0.00062094536 0.00035567462 -0.12450808 0.29132518
212400000000 0.53628576 0.082351752 0.12464105 -0.0024602339 -0.00061103312 0.00038867749 -0.10224068 0.3008104
212466666666.67 0.52888364 0.05241394 0.12236756 -0.010862652 -0.00059934013 0.00045652769 -0.078743182 0.31235674
212533333333.33 0.54394543 0.016923249 0.1195972 -0.020914579 -0.00056784472 0.00044077967 -0.058671907 0.32092679
212600000000 0.54012865 -0.020974459 0.11715598 -0.031462975 -0.00052680867 0.0005131879 -0.033214495 0.32783598
212666666666.67 0.53193921 -0.054266214 0.10833531 -0.040911514 -0.0005158828 0.00052741385 -0.0091551468 0.3309159
212733333333.33 0.53386128 -0.089526117 0.10689159 -0.044610184 -0.00047042791 0.00057148578 0.014688492 0.33268848
212800000000 0.51700419 -0.12720974 0.10444241 -0.049808208 -0.00042277039 0.0006038961 0.037546702 0.33594704
212866666666.67 0.51527274 -0.15102285 0.098207779 -0.060087495 -0.00037517393 0.00063749641 0.063754976 0.33364707
212933333333.33 0.50618488 -0.18291713 0.089584336 -0.065887704 -0.00033731593 0.00065023784 0.085781001 0.33077124
213000000000 0.49677432 -0.20620614 0.08250796 -0.070179515 -0.00026368842 0.00066654856 0.11267632 0.32635534
213066666666.67 0.49101216 -0.24414761 0.083615929 -0.076833203 -0.00025394489 0.0006856863 0.13473421 0.31828451
213133333333.33 0.48581871 -0.27697036 0.075698316 -0.089249335 -0.00019617313 0.00070377998 0.15796599 0.31093973
213200000000 0.44976157 -0.30107337 0.066219851 -0.085131615 -0.00014275308 0.00071595819 0.18341571 0.30236974
213266666666.67 0.43078727 -0.33896723 0.057955988 -0.089417137 -0.00011745282 0.00073829875 0.20338514 0.29394892
213333333333.33 0.41313604 -0.35684085 0.051780306 -0.095868357 -4.270827e-05 0.00073806813 0.22803807 0.28164962
213400000000 0.39226785 -0.3844381 0.047887251 -0.096795537 -3.0600306e-05 0.000745108 0.2456775 0.26901484
213466666666.67 0.36966982 -0.40625823 0.03501324 -0.097664967 2.8682014e-05 0.00073977618 0.26921922 0.25250471
213533333333.33 0.34153569 -0.42459944 0.028135886 -0.097207308 7.195145e-05 0.00073998916 0.28230175 0.23861884
213600000000 0.30872729 -0.43421105 0.025360685 -0.099980898 0.00013361692 0.00073922792 0.30649054 0.21862359
213666666666.67 0.27850562 -0.46666023 0.011478466 -0.10210066 0.00016563133 0.00072509737 0.32169041 0.20163754
213733333333.33 0.24309272 -0.48630586 0.0069451295 -0.10211219 0.00022121819 0.00073237531 0.33789411 0.18499862
213800000000 0.21836068 -0.49283594 -0.00042938814 -0.10318795 0.00027088705 0.00071223773 0.3528204 0.15752886
213866666666.67 0.2005181 -0.50368541 -0.011109076 -0.10057522 0.00031426689 0.0006753967 0.36028481 0.13514078
213933333333.33 0.16030264 -0.51344103 -0.013557674 -0.096735246 0.00034518179 0.00064088363 0.37647325 0.11182228
214000000000 0.12525104 -0.52206963 -0.021761 -0.094001755 0.00036767789 0.00064590829 0.38601327 0.088940687
214066666666.67 0.093529567 -0.52613866 -0.025541728 -0.091661006 0.0004326365 0.00060664734 0.39768398 0.066721633
214133333333.33 0.062065534 -0.52924126 -0.031173136 -0.09305308 0.00047817826 0.00058690715 0.40064588 0.037880689
214200000000 0.034741521 -0.52945954 -0.038646661 -0.083408885 0.00051734154 0.00055062131 0.4027907 0.01566571
214266666666.67 -0.017017841 -0.54107499 -0.047433477 -0.08233878 0.00056021585 0.00051734434 0.40860099 -0.011940569
214333333333.33 -0.03622207 -0.52646387 -0.049675196 -0.078492358 0.00057967019 0.00050196238 0.41050261 -0.035508499
214400000000 -0.07112731 -0.5286029 -0.053469814 -0.073134549 0.00061505142 0.00045699021 0.4099524 -0.06302654
214466666666.67 -0.084493831 -0.51638263 -0.062233187 -0.068446442 0.000649989 0.00041546783 0.4037129 -0.082388461
214533333333.33 -0.13330637 -0.51501113 -0.063089117 -0.063037716 0.00066772575 0.00036593186 0.4043873 -0.11022586
214600000000 -0.16504693 -0.49696872 -0.070059299 -0.059395459 0.00070917717 0.00031564344 0.40053612 -0.13818783
214666666666.67 -0.19435109 -0.48330596 -0.070683226 -0.050535277 0.00071942928 0.00026124949 0.39418009 -0.16422015
214733333333.33 -0.22909933 -0.46359998 -0.075973406 -0.048872966 0.00072847842 0.00022487016 0.38561898 -0.18916625
214800000000 -0.2573269 -0.45296073 -0.075005539 -0.046915129 0.00075679971 0.00018544345 0.37718701 -0.2095045
214866666666.67 -0.27758074 -0.43138212 -0.079757839 -0.035812408 0.00076431059 0.00013996396 0.36402482 -0.23431626
214933333333.33 -0.30438182 -0.41191968 -0.077882513 -0.029403631 0.00076818722 7.0122296e-05 0.34798741 -0.25873175
215000000000 -0.3383767 -0.38606441 -0.080332696 -0.02441662 0.00077205035 1.6619655e-05 0.33312735 -0.28042614
215066666666.67 -0.35282123 -0.36071801 -0.080528423 -0.0163588 0.00078022759 -3.1668635e-05 0.32157382 -0.2974599
215133333333.33 -0.3716377 -0.3446461 -0.080948025 -0.010830954 0.00078162132 -8.8084678e-05 0.30752701 -0.31583872
215200000000 -0.3996267 -0.31703681 -0.080573358 -0.0059157158 0.00080183049 -0.00012688656 0.28449273 -0.33800367
215266666666.67 -0.41801149 -0.28939736 -0.080441833 -0.0032505617 0.00077596371 -0.0001896786 0.26819155 -0.35435331
215333333333.33 -0.42331445 -0.26359361 -0.082715496 0.0042653438 0.00074372761 -0.00024140871 0.24712294 -0.37079221
215400000000 -0.44164604 -0.2267167 -0.079854593 0.013939494 0.00074112619 -0.00027013218 0.22257605 -0.38409391
215466666666.67 -0.46334684 -0.20143983 -0.077774554 0.017767917 0.00072434981 -0.00032419665 0.20153634 -0.40455765
215533333333.33 -0.47260037 -0.16379833 -0.07723923 0.024526816 0.00069464132 -0.00035540838 0.17426395 -0.41564581
215600000000 -0.47570562 -0.13498808 -0.074235231 0.029857788 0.00069109531 -0.00040939474 0.15440927 -0.42531484
215666666666.67 -0.47261083 -0.099429205 -0.067936823 0.032689586 0.00065495272 -0.00045852657 0.1287445 -0.43251854
215733333333.33 -0.48696551 -0.074245378 -0.069687076 0.036924656 0.00062265014 -0.00049666705 0.10648816 -0.44147652
215800000000 -0.4840695 -0.040117815 -0.068308175 0.043090731 0.00058071007 -0.00053959788 0.077961564 -0.44778812
215866666666.67 -0.48293436 -0.0042284876 -0.060130678 0.048024498 0.00056177075 -0.00058922241 0.053418577 -0.45162195
215933333333.33 -0.47800547 0.028530585 -0.055291276 0.049015563 0.00049935898 -0.00061879348 0.024747042 -0.4597185
216000000000 -0.47619927 0.058038577 -0.055523515 0.050629787 0.00047285811 -0.00062130572 0.0021914393 -0.45838869
216066666666.67 -0.46426618 0.10255039 -0.045957297 0.054374896 0.0004292106 -0.00068039587 -0.025962532 -0.46099839
216133333333.33 -0.45618966 0.1279726 -0.041921489 0.057084359 0.00040459662 -0.00070788088 -0.052786127 -0.45253992
216200000000 -0.44439447 0.15754975 -0.040486891 0.062274203 0.00033314846 -0.00073898007 -0.079372242 -0.45443842
216266666666.67 -0.43262619 0.1989294 -0.035978593 0.064993873 0.00029426889 -0.00074751501 -0.1088324 -0.44396219
216333333333.33 -0.41762775 0.21430486 -0.031973124 0.069077581 0.00025879376 -0.00075799297 -0.12793648 -0.44099966
216400000000 -0.40021759 0.24506205 -0.029684447 0.074061237 0.00021158546 -0.00080088113 -0.15527523 -0.43057087
216466666666.67 -0.3737323 0.26978254 -0.01599 0.074947566 0.00013861712 -0.00079741346 -0.18069544 -0.42112988
216533333333.33 -0.35766974 0.29152367 -0.01396023 0.069438152 8.0209975e-05 -0.00081178208 -0.2070518 -0.4087595
216600000000 -0.32625282 0.32152435 -0.0090352921 0.065077692 2.5111862e-05 -0.00083584839 -0.22884443 -0.39143687
216666666666.67 -0.30489042 0.33970749 0.0019161701 0.07121966 -4.3859472e-06 -0.00082681573 -0.24796532 -0.37979084
216733333333.33 -0.27313429 0.36024928 -0.00075965095 0.071378693 -7.7226563e-05 -0.00085039809 -0.26833227 -0.3704454
216800000000 -0.23851454 0.37080747 0.0021179896 0.06921351 -0.00012113928 -0.00081494823 -0.2899971 -0.34965175
216866666666.67 -0.21923292 0.3934392 0.013861375 0.068770595 -0.00016036499 -0.00081072462 -0.30927199 -0.3305462
216933333333.33 -0.18971947 0.41432768 0.013858013 0.065658063 -0.00022616962 -0.00080180983 -0.32751769 -0.31422615
217000000000 -0.15742803 0.41593239 0.021739034 0.066137113 -0.00028033523 -0.00080008118 -0.34443873 -0.29070103
217066666666.67 -0.12077527 0.42985356 0.026011897 0.060512237 -0.00033249159 -0.00077814766 -0.36121166 -0.27082983
217133333333.33 -0.084555358 0.43038443 0.0332628 0.066259719 -0.0003961889 -0.00075146795 -0.37544957 -0.24534009
217200000000 -0.061416768 0.44321892 0.032580733 0.056684151 -0.00041828447 -0.00071137736 -0.38685012 -0.22215651
217266666666.67 -0.015518412 0.44566122 0.042191468 0.059663758 -0.00051240163 -0.00070004642 -0.39851707 -0.19835195
217333333333.33 0.023291111 0.4347986 0.043760575 0.05386975 -0.00052224589 -0.00064733077 -0.40836316 -0.17163712
217400000000 0.044356771 0.4364945 0.04800345 0.046122856 -0.00055534055 -0.00064160093 -0.41521558 -0.14693692
217466666666.67 0.076347962 0.43134177 0.048893593 0.042444497 -0.00061416719 -0.00059848733 -0.42156354 -0.11980207
217533333333.33 0.1165694 0.42414206 0.051318493 0.039575942 -0.00066962722 -0.00055493729 -0.42315695 -0.09419933
217600000000 0.1541142 0.41419813 0.053378269 0.036345825 -0.00068091473 -0.00050656497 -0.42554697 -0.066026077
217666666666.67 0.18617423 0.39718506 0.057223178 0.033998191 -0.0007336475 -0.00045646695 -0.42812952 -0.039831702
217733333333.33 0.21199647 0.38807029 0.055397678 0.025010886 -0.00075851392 -0.00043713118 -0.42724949 -0.013661176
217800000000 0.2550917 0.36323503 0.061911277 0.021553997 -0.00078145298 -0.00035786867 -0.42497841 0.013808832
217866666666.67 0.26841661 0.34814411 0.060274139 0.02040009 -0.00082128478 -0.00028961542 -0.42268211 0.033634134
217933333333.33 0.29747236 0.32752717 0.059853513 0.012991619 -0.00082644186 -0.00027145591 -0.41564754 0.064178228
218000000000 0.31179494 0.30525416 0.059759662 0.0077080913 -0.0008278708 -0.00018843886 -0.40698233 0.090339661
218066666666.67 0.33552784 0.26304942 0.056015104 0.0088019464 -0.00084830238 -0.00012234028 -0.40121508 0.11064174
218133333333.33 0.35765824 0.24465138 0.064016379 0.0010880758 -0.00087427389 -8.2489591e-05 -0.39117932 0.13521683
218200000000 0.38209516 0.20550208 0.060595676 -0.0042208862 -0.00087193237 -4.8247311e-05 -0.37958515 0.1600728
218266666666.67 0.404091 0.18123765 0.06360361 -0.0079643577 -0.00088545436 5.4166565e-05 -0.36336401 0.18698785
218333333333.33 0.41093451 0.15751141 0.062524371 -0.010804337 -0.00086641806 9.2100658e-05 -0.34855527 0.20752303
218400000000 0.42505109 0.12350222 0.055244938 -0.018246371 -0.00087671791 0.00013837399 -0.32836762 0.22597617
218466666666.67 0.4392935 0.093510583 0.051928893 -0.022845268 -0.00084588851 0.00022061523 -0.30978984 0.24907374
218533333333.33 0.44260293 0.068665147 0.051041011 -0.025538962 -0.0008514279 0.0002602523 -0.28953466 0.26938069
218600000000 0.45020628 0.024126112 0.049900047 -0.033242442 -0.00083160709 0.00030338671 -0.26840585 0.28131366
218666666666.67 0.45476153 -0.0090256296 0.048581164 -0.031082137 -0.00078967796 0.00037772802 -0.24585825 0.29797161
218733333333.33 0.46849668 -0.040394142 0.04507792 -0.036713414 -0.00077761139 0.00041793194 -0.22306865 0.30905139
218800000000 0.45688182 -0.087519869 0.040024403 -0.038497388 -0.00073948188 0.00048652402 -0.20108157 0.32235923
218866666666.67 0.45719543 -0.11589191 0.036487162 -0.043107308 -0.00071232225 0.00052839715 -0.17324841 0.33410931
218933333333.33 0.45089167 -0.13744807 0.040861346 -0.042446081 -0.00068353408 0.00054320064 -0.14871484 0.34156016
219000000000 0.43406925 -0.18403718 0.029372741 -0.039485443 -0.00064088864 0.00063570187 -0.12163132 0.34768671
219066666666.67 0.42033327 -0.21063393 0.024382763 -0.053088058 -0.00061027176 0.00067121873 -0.094897389 0.35516828
219133333333.33 0.40598822 -0.24535736 0.021273931 -0.05058597 -0.00056571967 0.00069042348 -0.069541872 0.3568567
219200000000 0.38538104 -0.27769199 0.019941481 -0.049407337 -0.00051495648 0.00072907202 -0.043068584 0.35871372
219266666666.67 0.3710539 -0.29822493 0.016411204 -0.049734894 -0.00044073263 0.00076748716 -0.011892125 0.35857591
219333333333.33 0.35202408 -0.32674104 0.014441935 -0.052854545 -0.00041721683 0.00079888944 0.015142053 0.35650915
219400000000 0.33516827 -0.36196712 0.0045101997 -0.055519894 -0.00036384887 0.00080271298 0.040092036 0.35071754
219466666666.67 0.30212992 -0.39127499 0.0028823467 -0.056506474 -0.00027629812 0.00083939091 0.06729167 0.34718677
219533333333.33 0.28494284 -0.40746385 0.0017164983 -0.050158069 -0.00022856882 0.00084700115 0.094820507 0.33856916
219600000000 0.26201797 -0.4311322 -0.0060003046 -0.052999612 -0.00017889461 0.00087708904 0.11877723 0.32173979
219666666666.67 0.22389866 -0.45000589 -0.006349057 -0.053653155 -0.00014793855 0.00087436667 0.14266063 0.31133834
219733333333.33 0.19277608 -0.46128729 -0.014763599 -0.051899239 -4.7692782e-05 0.00089000765 0.1716859 0.30068669
219800000000 0.17553309 -0.48483869 -0.016297774 -0.050468594 -4.8441871e-06 0.00089562812 0.18653409 0.27849719
219866666666.67 0.13884121 -0.48680857 -0.019579649 -0.045092411 5.3057331e-05 0.00088201102 0.21290846 0.26516271
219933333333.33 0.10581148 -0.50280607 -0.017945901 -0.038935058 0.00013319963 0.00089328364 0.23354095 0.24779746
220000000000 0.078582957 -0.51134878 -0.023890037 -0.038511284 0.00017627375 0.00086644274 0.24803105 0.22244294
